2478
1 5 2 3 5 6 7
2 6 1 6 7 11 2470 2476
3 9 1 5 7 8 9 564 606 640 655
4 3 11 2441 2473
5 4 1 3 6 9
6 6 1 2 5 9 10 11
7 7 1 2 3 564 2442 2456 2470
8 4 3 9 624 640
9 8 3 5 6 8 10 624 2463 2464
10 5 6 9 11 2441 2464
11 7 2 4 6 10 2441 2473 2476
12 3 13 14 17
13 3 12 14 18
14 6 12 13 15 16 17 18
15 3 14 16 19
16 3 14 15 17
17 4 12 14 16 1935
18 2 13 14
19 3 15 20 23
20 2 19 23
21 1 22
22 2 21 23
23 3 19 20 22
24 8 25 28 29 35 1984 1990 1993 1997
25 3 24 1993 1997
26 4 27 32 33 2328
27 4 26 32 33 36
28 6 24 30 31 32 34 35
29 4 24 34 35 1984
30 2 28 31
31 4 28 30 32 36
32 12 26 27 28 31 34 36 1825 1828 1830 2328 2378 2404
33 6 26 27 2328 2387 2403 2419
34 6 28 29 32 35 1825 1828
35 4 24 28 29 34
36 3 27 31 32
37 8 39 46 59 62 69 974 983 1012
38 6 41 56 57 74 305 316
39 4 37 59 69 72
40 3 48 54 70
41 5 38 74 292 305 316
42 3 43 58 988
43 7 42 46 49 58 67 974 988
44 8 46 49 51 54 55 61 64 70
45 7 47 50 56 65 73 74 2421
46 7 37 43 44 49 51 62 974
47 9 45 50 53 59 65 73 966 983 996
48 3 40 63 70
49 7 43 44 46 55 60 64 67
50 9 45 47 53 73 1001 2421 2446 2462 2474
51 7 44 46 61 62 69 71 72
52 4 61 65 68 71
53 6 47 50 966 972 1001 1009
54 4 40 44 61 70
55 2 44 49
56 5 38 45 57 65 74
57 6 38 56 65 66 305 315
58 4 42 43 63 67
59 7 37 39 47 65 68 72 983
60 4 49 63 64 67
61 8 44 51 52 54 65 66 71 245
62 4 37 46 51 69
63 6 48 58 60 64 67 70
64 5 44 49 60 63 70
65 9 45 47 52 56 57 59 61 66 68
66 7 57 61 65 237 245 273 315
67 5 43 49 58 60 63
68 5 52 59 65 71 72
69 5 37 39 51 62 72
70 6 40 44 48 54 63 64
71 5 51 52 61 68 72
72 6 39 51 59 68 69 71
73 3 45 47 50
74 9 38 41 45 56 292 304 316 2421 2462
75 3 76 84 853
76 8 75 77 80 81 84 548 853 880
77 6 76 81 82 548 583 611
78 6 80 81 82 83 587 621
79 3 80 83 84
80 6 76 78 79 81 83 84
81 5 76 77 78 80 82
82 7 77 78 81 546 583 587 611
83 5 78 79 80 598 621
84 5 75 76 79 80 853
85 8 94 100 102 122 127 129 155 159
86 4 125 126 153 204
87 7 92 93 109 129 144 146 181
88 7 89 126 141 153 170 183 189
89 5 88 97 107 141 170
90 5 106 137 148 161 193
91 8 92 118 133 135 147 160 163 199
92 6 87 91 93 160 163 181
93 12 87 92 100 102 129 133 154 163 167 182 195 207
94 3 85 129 159
95 4 101 131 156 172
96 4 131 177 184 206
97 6 89 107 118 133 170 199
98 5 109 146 165 178 205
99 5 134 1983 1989 1991 1994
100 4 85 93 102 129
101 7 95 110 114 115 131 156 178
102 6 85 93 100 122 182 188
103 6 108 133 145 167 173 188
104 3 131 156 172
105 4 106 158 161 1986
106 10 90 105 113 158 161 162 171 180 186 193
107 5 89 97 133 141 202
108 5 103 140 167 188 195
109 7 87 98 146 165 168 181 190
110 5 101 114 115 166 174
111 7 121 128 148 193 196 197 198
112 2 117 1993
113 5 106 116 128 180 193
114 4 101 110 174 187
115 7 101 110 144 166 169 178 205
116 8 113 128 145 151 173 179 180 194
117 8 112 120 148 185 198 1988 1993 1999
118 4 91 97 133 199
119 6 132 183 189 200 203 1994
120 5 117 137 148 161 1988
121 3 111 148 193
122 7 85 102 127 164 175 188 197
123 5 124 142 143 171 186
124 7 123 125 130 142 171 176 204
125 8 86 124 130 132 149 153 189 204
126 6 86 88 141 153 179 204
127 7 85 122 155 159 175 191 198
128 8 111 113 116 157 173 193 194 196
129 8 85 87 93 94 100 144 159 208
130 5 124 125 138 149 176
131 8 95 96 101 104 172 177 184 201
132 9 119 125 134 138 149 189 200 1985 1994
133 11 91 93 97 103 107 118 145 163 167 202 207
134 5 99 132 1985 1991 1994
135 4 91 147 150 199
136 1 184
137 4 90 120 148 161
138 5 130 132 149 176 1985
139 2 152 198
140 3 108 167 195
141 6 88 89 107 126 179 202
142 4 123 124 143 204
143 4 123 142 186 204
144 7 87 115 129 146 169 205 208
145 6 103 116 133 173 179 202
146 6 87 98 109 144 190 205
147 6 91 135 150 160 1087 1286
148 8 90 111 117 120 121 137 193 198
149 4 125 130 132 138
150 9 135 147 199 203 1065 1084 1087 1365 2269
151 2 116 194
152 2 139 198
153 5 86 88 125 126 189
154 2 93 195
155 3 85 127 159
156 7 95 101 104 168 172 178 192
157 3 128 173 196
158 5 105 106 171 176 1986
159 6 85 94 127 129 155 208
160 5 91 92 147 181 1286
161 7 90 105 106 120 137 1986 1988
162 3 106 171 186
163 4 91 92 93 133
164 5 122 182 188 196 197
165 4 98 109 168 178
166 5 110 115 169 174 187
167 7 93 103 108 133 140 195 207
168 5 109 156 165 178 192
169 6 115 144 166 174 187 208
170 5 88 89 97 183 199
171 7 106 123 124 158 162 176 186
172 4 95 104 131 156
173 8 103 116 128 145 157 188 194 196
174 5 110 114 166 169 187
175 4 122 127 197 198
176 7 124 130 138 158 171 1985 1986
177 4 96 131 201 206
178 8 98 101 115 156 165 168 192 205
179 8 116 126 141 145 180 186 202 204
180 5 106 113 116 179 186
181 4 87 92 109 160
182 5 93 102 164 188 195
183 6 88 119 170 189 199 203
184 3 96 131 136
185 4 117 1988 1993 1997
186 8 106 123 143 162 171 179 180 204
187 5 114 166 169 174 208
188 9 102 103 108 122 164 173 182 195 196
189 6 88 119 125 132 153 183
190 2 109 146
191 2 127 198
192 3 156 168 178
193 7 90 106 111 113 121 128 148
194 4 116 128 151 173
195 7 93 108 140 154 167 182 188
196 7 111 128 157 164 173 188 197
197 6 111 122 164 175 196 198
198 9 111 117 127 139 148 152 175 191 197
199 8 91 97 118 135 150 170 183 203
200 2 119 132
201 2 131 177
202 5 107 133 141 145 179
203 7 119 150 183 199 1065 1994 2269
204 8 86 124 125 126 142 143 179 186
205 5 98 115 144 146 178
206 2 96 177
207 3 93 133 167
208 5 129 144 159 169 187
209 7 211 212 228 244 251 253 254
210 3 222 252 271
211 5 209 228 232 237 254
212 6 209 215 251 253 260 274
213 5 231 258 259 261 271
214 6 218 222 226 231 236 258
215 8 212 257 260 263 272 274 294 310
216 7 233 238 243 256 259 262 275
217 5 220 239 255 264 265
218 5 214 226 236 253 274
219 1 256
220 6 217 222 239 252 264 270
221 5 225 235 238 243 249
222 9 210 214 220 231 236 239 241 252 271
223 8 229 242 248 253 254 259 268 275
224 4 246 250 252 271
225 4 221 235 238 250
226 5 214 218 253 258 261
227 6 228 247 267 273 295 310
228 8 209 211 227 237 244 247 267 273
229 3 223 254 268
230 4 255 264 1905 1939
231 7 213 214 222 241 258 261 271
232 3 211 237 254
233 4 216 234 256 275
234 6 233 237 245 248 256 275
235 8 221 225 246 249 250 1915 1961 1976
236 6 214 218 222 239 257 274
237 9 66 211 228 232 234 245 248 254 273
238 7 216 221 225 243 250 259 271
239 6 217 220 222 236 257 265
240 4 257 265 269 1905
241 3 222 231 271
242 3 223 259 275
243 5 216 221 238 249 262
244 6 209 228 251 263 266 267
245 4 61 66 234 237
246 6 224 235 250 252 1920 1976
247 3 227 228 273
248 6 223 234 237 254 268 275
249 6 221 235 243 1929 1933 1961
250 6 224 225 235 238 246 271
251 5 209 212 244 260 263
252 9 210 220 222 224 246 270 271 1920 1930
253 9 209 212 218 223 226 254 259 261 274
254 9 209 211 223 229 232 237 248 253 268
255 5 217 230 264 265 1905
256 5 216 219 233 234 262
257 8 215 236 239 240 265 269 272 274
258 5 213 214 226 231 261
259 9 213 216 223 238 242 253 261 271 275
260 4 212 215 251 263
261 6 213 226 231 253 258 259
262 3 216 243 256
263 6 215 244 251 260 266 310
264 8 217 220 230 255 270 1921 1939 1950
265 6 217 239 240 255 257 1905
266 4 244 263 267 310
267 5 227 228 244 266 310
268 4 223 229 248 254
269 5 240 257 272 1905 1909
270 5 220 252 264 1921 1930
271 10 210 213 222 224 231 238 241 250 252 259
272 8 215 257 269 294 307 320 1895 1909
273 8 66 227 228 237 247 295 315 321
274 6 212 215 218 236 253 257
275 7 216 223 233 234 242 248 259
276 9 277 280 281 282 287 714 717 794 913
277 8 276 286 287 692 715 913 921 929
278 6 283 285 288 289 290 291
279 8 282 285 286 287 291 751 761 770
280 3 276 281 714
281 7 276 280 282 283 284 291 714
282 5 276 279 281 287 291
283 7 278 281 284 289 291 718 736
284 4 281 283 714 736
285 5 278 279 290 291 770
286 5 277 279 287 692 761
287 5 276 277 279 282 286
288 8 278 289 290 688 698 713 770 788
289 5 278 283 288 688 718
290 4 278 285 288 770
291 6 278 279 281 282 283 285
292 7 41 74 297 304 316 330 2448
293 5 308 312 324 327 330
294 6 215 272 302 307 310 323
295 6 227 273 298 300 310 321
296 3 300 306 329
297 5 292 330 2448 2457 2466
298 5 295 300 310 323 329
299 4 308 314 322 2445
300 6 295 296 298 306 321 329
301 6 312 317 318 955 1896 1902
302 3 294 310 323
303 9 307 311 318 319 320 323 325 326 328
304 4 74 292 2448 2462
305 6 38 41 57 315 316 321
306 8 296 300 309 316 321 327 329 330
307 7 272 294 303 313 320 323 325
308 6 293 299 312 322 330 2445
309 6 306 311 324 327 328 329
310 10 215 227 263 266 267 294 295 298 302 323
311 7 303 309 312 318 324 326 328
312 8 293 301 308 311 317 318 322 324
313 3 307 320 325
314 6 299 317 322 2445 2450 2472
315 5 57 66 273 305 321
316 8 38 41 74 292 305 306 321 330
317 9 301 312 314 322 945 946 955 2438 2472
318 9 301 303 311 312 319 320 1893 1902 1904
319 3 303 318 320
320 11 272 303 307 313 318 319 325 1893 1895 1903 1908
321 7 273 295 300 305 306 315 316
322 5 299 308 312 314 317
323 8 294 298 302 303 307 310 328 329
324 5 293 309 311 312 327
325 4 303 307 313 320
326 3 303 311 328
327 5 293 306 309 324 330
328 6 303 309 311 323 326 329
329 7 296 298 300 306 309 323 328
330 9 292 293 297 306 308 316 327 2445 2466
331 9 335 336 339 367 372 816 849 1805 1819
332 8 345 351 352 353 359 373 610 640
333 4 338 364 827 841
334 10 340 365 370 645 657 800 833 866 886 891
335 3 331 339 849
336 6 331 339 347 350 354 367
337 8 341 356 358 361 1807 1812 1816 1818
338 4 333 364 827 836
339 8 331 335 336 354 799 812 836 849
340 4 334 353 365 370
341 4 337 356 357 361
342 6 345 348 355 357 366 373
343 5 345 624 640 1884 2435
344 4 348 360 365 375
345 9 332 342 343 355 373 640 1832 1874 1884
346 2 354 364
347 7 336 349 350 363 367 368 371
348 10 342 344 349 350 360 363 366 373 375 376
349 5 347 348 363 366 371
350 6 336 347 348 354 363 376
351 4 332 352 353 370
352 7 332 351 370 602 610 645 666
353 7 332 340 351 359 365 370 375
354 7 336 339 346 350 364 376 836
355 4 342 345 357 1874
356 6 337 341 357 366 1807 1815
357 8 341 342 355 356 361 366 1841 1874
358 4 337 361 362 1818
359 4 332 353 373 375
360 8 344 348 364 365 374 376 888 891
361 8 337 341 357 358 362 1862 1874 1875
362 6 358 361 369 1806 1818 1875
363 4 347 348 349 350
364 10 333 338 346 354 360 376 836 841 875 888
365 8 334 340 344 353 360 374 375 891
366 8 342 348 349 356 357 368 371 1815
367 5 331 336 347 368 1805
368 6 347 366 367 371 1805 1815
369 4 362 1803 1806 1818
370 6 334 340 351 352 353 645
371 4 347 349 366 368
372 3 331 816 1819
373 6 332 342 345 348 359 375
374 3 360 365 891
375 6 344 348 353 359 365 373
376 5 348 350 354 360 364
377 6 386 406 419 426 454 1125
378 3 388 449 719
379 4 389 414 421 430
380 3 385 401 437
381 4 441 446 843 877
382 6 386 396 454 1143 1277 1320
383 6 428 429 447 449 744 767
384 6 388 390 392 393 438 444
385 4 380 398 404 437
386 9 377 382 391 396 420 426 439 443 454
387 3 399 444 446
388 8 378 384 390 402 403 438 449 719
389 6 379 401 414 430 437 450
390 5 384 388 393 431 449
391 8 386 394 414 417 426 439 443 458
392 5 384 393 444 445 455
393 8 384 390 392 395 413 415 431 445
394 9 391 411 412 414 416 435 439 450 458
395 8 393 398 404 411 413 415 435 445
396 8 382 386 400 420 423 1277 1349 1361
397 4 399 441 813 851
398 6 385 395 404 411 437 450
399 4 387 397 441 446
400 9 396 408 410 420 421 422 423 434 452
401 5 380 389 430 436 437
402 6 388 403 427 451 706 719
403 4 388 402 438 451
404 4 385 395 398 445
405 8 406 407 412 416 439 459 1590 1656
406 6 377 405 419 426 439 1590
407 4 405 459 1588 1656
408 4 400 420 422 443
409 9 410 418 423 424 425 1063 1101 1315 1558
410 5 400 409 421 423 425
411 5 394 395 398 435 450
412 7 394 405 415 416 432 435 459
413 3 393 395 415
414 8 379 389 391 394 417 421 448 450
415 8 393 395 412 413 431 432 435 442
416 5 394 405 412 435 439
417 4 391 414 443 448
418 8 409 423 1039 1040 1063 1200 1271 1571
419 6 377 406 1125 1590 1596 1685
420 5 386 396 400 408 443
421 12 379 400 410 414 422 425 430 433 436 448 452 461
422 7 400 408 421 443 448 452 461
423 9 396 400 409 410 418 434 1040 1271 1349
424 9 409 425 433 453 460 1147 1182 1315 1487
425 6 409 410 421 424 433 453
426 5 377 386 391 406 439
427 7 402 451 678 706 758 818 895
428 3 383 429 449
429 9 383 428 440 447 449 456 457 920 940
430 5 379 389 401 421 436
431 5 390 393 415 442 449
432 5 412 415 440 442 459
433 5 421 424 425 436 453
434 2 400 423
435 6 394 395 411 412 415 416
436 4 401 421 430 433
437 6 380 385 389 398 401 450
438 6 384 388 403 444 446 451
439 7 386 391 394 405 406 416 426
440 6 429 432 442 449 456 459
441 6 381 397 399 446 813 877
442 5 415 431 432 440 449
443 7 386 391 408 417 420 422 448
444 6 384 387 392 438 446 455
445 5 392 393 395 404 455
446 9 381 387 399 438 441 444 451 818 843
447 4 383 429 457 767
448 5 414 417 421 422 443
449 12 378 383 388 390 428 429 431 440 442 706 719 744
450 6 389 394 398 411 414 437
451 6 402 403 427 438 446 818
452 4 400 421 422 461
453 3 424 425 433
454 5 377 382 386 1125 1143
455 3 392 444 445
456 5 429 440 459 920 930
457 7 429 447 695 696 724 767 940
458 2 391 394
459 9 405 407 412 432 440 456 919 930 1588
460 2 424 1147
461 3 421 422 452
462 5 475 487 531 2139 2235
463 5 492 494 509 512 517
464 7 467 476 477 490 2139 2239 2247
465 6 467 513 528 534 541 1853
466 6 490 493 505 513 539 2247
467 6 464 465 477 490 513 541
468 8 470 472 480 499 501 509 517 520
469 2 507 523
470 7 468 472 496 501 503 518 520
471 5 473 481 504 519 545
472 3 468 470 501
473 9 471 479 495 504 519 535 543 703 716
474 4 526 528 540 1853
475 7 462 487 527 530 531 537 1636
476 4 464 477 538 2139
477 9 464 467 476 478 502 514 529 538 541
478 5 477 485 511 514 541
479 5 473 495 522 524 543
480 3 468 501 517
481 8 471 483 484 504 517 529 545 684
482 5 522 531 538 543 2139
483 3 481 484 529
484 7 481 483 504 522 524 529 538
485 8 478 497 508 511 514 528 540 541
486 3 492 518 520
487 7 462 475 506 537 2231 2235 2252
488 9 489 515 516 532 1738 2044 2069 2073 2090
489 3 488 1738 2090
490 5 464 466 467 513 2247
491 5 545 684 708 710 725
492 9 463 486 494 510 512 518 520 723 764
493 7 466 500 539 2167 2239 2247 2267
494 5 463 492 499 509 520
495 4 473 479 504 524
496 8 470 501 502 503 508 514 533 544
497 6 485 508 525 540 544 1804
498 7 503 518 521 536 745 1810 1811
499 4 468 494 509 520
500 6 493 507 539 2264 2267 2307
501 8 468 470 472 480 496 502 517 529
502 5 477 496 501 514 529
503 6 470 496 498 518 533 536
504 6 471 473 481 484 495 524
505 5 466 507 513 534 539
506 7 487 537 1600 1670 1787 1802 2252
507 9 469 500 505 523 534 539 2264 2265 2283
508 5 485 496 497 514 544
509 5 463 468 494 499 517
510 8 492 512 723 726 754 764 776 795
511 3 478 485 541
512 7 463 492 510 517 687 690 726
513 6 465 466 467 490 505 534
514 6 477 478 485 496 502 508
515 9 488 527 530 532 542 543 1650 1738 1744
516 5 488 532 703 741 2073
517 10 463 468 480 481 501 509 512 529 684 690
518 8 470 486 492 498 503 520 521 764
519 5 471 473 545 703 710
520 7 468 470 486 492 494 499 518
521 5 498 518 745 764 1810
522 6 479 482 484 524 538 543
523 8 469 507 534 1853 1859 2265 2283 2313
524 5 479 484 495 504 522
525 6 497 544 1804 1809 1817 1820
526 6 474 540 1804 1835 1853 1871
527 6 475 515 530 531 542 543
528 6 465 474 485 540 541 1853
529 8 477 481 483 484 501 502 517 538
530 8 475 515 527 1611 1618 1636 1744 1800
531 6 462 475 482 527 543 2139
532 6 488 515 516 535 543 703
533 4 496 503 536 544
534 6 465 505 507 513 523 1853
535 5 473 532 543 703 716
536 7 498 503 533 544 1811 1813 1817
537 7 475 487 506 1600 1618 1636 1670
538 7 476 477 482 484 522 529 2139
539 5 466 493 500 505 507
540 6 474 485 497 526 528 1804
541 7 465 467 477 478 485 511 528
542 3 515 527 543
543 10 473 479 482 515 522 527 531 532 535 542
544 7 496 497 508 525 533 536 1817
545 6 471 481 491 519 684 710
546 5 82 555 583 587 611
547 5 550 590 631 643 951
548 6 76 77 556 611 854 880
549 5 580 589 592 595 597
550 5 547 628 643 951 2465
551 6 555 571 576 611 638 663
552 5 553 577 602 610 666
553 7 552 577 606 610 640 647 655
554 6 565 612 623 634 652 668
555 8 546 551 562 585 587 611 619 663
556 7 548 571 611 638 644 854 872
557 7 569 576 605 660 661 663 669
558 7 568 591 604 615 619 621 653
559 8 570 580 592 595 596 607 642 662
560 6 579 628 651 654 667 956
561 6 572 581 594 603 646 659
562 7 555 585 625 658 660 663 669
563 5 586 591 598 615 621
564 4 3 7 606 2456
565 5 554 622 623 634 639
566 5 567 575 606 632 647
567 7 566 575 588 627 632 2429 2432
568 7 558 586 604 613 615 622 623
569 7 557 605 607 617 642 658 660
570 9 559 580 597 609 614 628 648 662 665
571 4 551 556 611 638
572 6 561 581 589 595 603 626
573 5 574 636 823 828 850
574 5 573 633 636 638 850
575 5 566 567 577 588 647
576 5 551 557 638 661 663
577 7 552 553 575 588 601 647 666
578 6 584 612 617 629 662 668
579 4 560 654 956 961
580 5 549 559 570 592 597
581 5 561 572 588 589 659
582 7 590 620 643 2423 2439 2453 2471
583 4 77 82 546 611
584 4 578 612 617 658
585 6 555 562 619 625 637 656
586 6 563 568 593 615 622 639
587 6 78 82 546 555 619 621
588 10 567 575 577 581 589 601 627 659 666 670
589 9 549 572 581 588 595 597 627 648 670
590 5 547 582 631 643 2471
591 4 558 563 615 621
592 4 549 559 580 595
593 3 586 616 639
594 7 561 599 646 659 814 831 870
595 7 549 559 572 589 592 596 626
596 4 559 595 626 642
597 5 549 570 580 589 648
598 3 83 563 621
599 7 594 645 657 659 666 808 831
600 8 616 634 652 952 953 961 963 964
601 3 577 588 666
602 4 352 552 610 666
603 8 561 572 626 630 646 796 814 903
604 5 558 568 613 653 656
605 5 557 569 618 642 661
606 11 3 553 564 566 632 647 655 2422 2432 2456 2458
607 5 559 569 617 642 662
608 6 609 628 629 654 667 668
609 5 570 608 628 629 665
610 6 332 352 552 553 602 640
611 9 77 82 546 548 551 555 556 571 583
612 9 554 578 584 613 623 625 641 658 668
613 6 568 604 612 623 641 656
614 5 570 628 648 2461 2478
615 5 558 563 568 586 591
616 5 593 600 634 639 963
617 6 569 578 584 607 658 662
618 6 605 626 630 635 642 661
619 7 555 558 585 587 621 637 653
620 7 582 650 664 2453 2460 2470 2471
621 8 78 83 558 563 587 591 598 619
622 5 565 568 586 623 639
623 6 554 565 568 612 613 622
624 6 8 9 343 640 2435 2463
625 6 562 585 612 641 656 658
626 7 572 595 596 603 618 630 642
627 6 567 588 589 648 670 2429
628 12 550 560 570 608 609 614 651 667 951 2465 2475 2478
629 6 578 608 609 662 665 668
630 6 603 618 626 635 796 850
631 7 547 590 649 946 951 2438 2471
632 5 566 567 606 2432 2458
633 5 574 635 638 661 850
634 6 554 565 600 616 639 652
635 5 618 630 633 661 850
636 8 573 574 638 644 828 837 885 900
637 4 585 619 653 656
638 9 551 556 571 574 576 633 636 644 661
639 6 565 586 593 616 622 634
640 9 3 8 332 343 345 553 610 624 655
641 4 612 613 625 656
642 7 559 569 596 605 607 618 626
643 7 547 550 582 590 2423 2434 2465
644 6 556 636 638 824 872 885
645 6 334 352 370 599 657 666
646 4 561 594 603 814
647 5 553 566 575 577 606
648 7 570 589 597 614 627 2429 2461
649 2 631 2438
650 4 620 664 2440 2471
651 4 560 628 951 956
652 5 554 600 634 668 961
653 5 558 604 619 637 656
654 6 560 579 608 667 668 961
655 4 3 553 606 640
656 7 585 604 613 625 637 641 653
657 5 334 599 645 808 886
658 7 562 569 584 612 617 625 660
659 6 561 581 588 594 599 666
660 5 557 562 569 658 669
661 7 557 576 605 618 633 635 638
662 7 559 570 578 607 617 629 665
663 6 551 555 557 562 576 669
664 4 620 650 2440 2470
665 4 570 609 629 662
666 9 352 552 577 588 599 601 602 645 659
667 4 560 608 628 654
668 8 554 578 608 612 629 652 654 961
669 4 557 562 660 663
670 3 588 589 627
671 8 673 681 695 722 756 767 779 781
672 6 674 676 679 694 759 788
673 4 671 722 744 767
674 7 672 679 694 725 771 785 788
675 4 702 912 914 924
676 3 672 679 759
677 7 682 702 715 739 792 909 924
678 8 427 706 721 722 744 758 772 779
679 7 672 674 676 694 740 759 785
680 3 714 717 734
681 6 671 704 707 720 779 781
682 5 677 715 739 909 923
683 6 704 709 727 742 768 784
684 7 481 491 517 545 687 690 708
685 5 752 763 782 859 892
686 6 700 727 742 777 856 1814
687 5 512 684 690 708 726
688 7 288 289 698 718 743 788 789
689 3 720 734 774
690 4 512 517 684 687
691 4 708 726 755 795
692 9 277 286 693 712 715 728 733 738 761
693 10 692 712 728 733 738 739 792 1586 1603 1663
694 3 672 674 679
695 6 457 671 696 724 756 767
696 3 457 695 724
697 6 724 750 775 786 931 940
698 10 288 688 705 713 732 743 762 778 783 788
699 3 717 757 787
700 5 686 729 742 748 777
701 6 729 745 764 777 1810 1814
702 7 675 677 792 912 924 1671 1749
703 9 473 516 519 532 535 710 716 741 746
704 7 681 683 707 709 720 730 784
705 8 698 708 732 743 755 778 780 795
706 6 402 427 449 678 719 744
707 7 681 704 753 763 779 782 784
708 10 491 684 687 691 705 725 726 755 762 778
709 5 683 704 711 730 742
710 7 491 519 545 703 725 746 771
711 6 709 730 742 748 754 760
712 3 692 693 728
713 4 288 698 732 788
714 8 276 280 281 284 680 717 734 736
715 9 277 677 682 692 728 733 739 923 929
716 3 473 535 703
717 14 276 680 699 714 734 757 765 774 775 786 787 790 791 794
718 8 283 289 688 734 735 736 766 789
719 5 378 388 402 449 706
720 9 681 689 704 730 734 749 774 781 791
721 5 678 731 758 763 779
722 6 671 673 678 744 772 779
723 3 492 510 764
724 7 457 695 696 697 750 756 940
725 9 491 674 708 710 762 771 778 783 788
726 6 510 512 687 691 708 795
727 6 683 686 742 768 856 896
728 5 692 693 712 715 733
729 6 700 701 748 764 776 777
730 7 704 709 711 720 737 749 760
731 6 721 752 758 763 779 859
732 5 698 705 713 778 780
733 5 692 693 715 728 739
734 10 680 689 714 717 718 720 736 749 766 774
735 5 718 737 749 766 789
736 5 283 284 714 718 734
737 5 730 735 749 760 789
738 7 692 693 751 759 761 769 1586
739 6 677 682 693 715 733 792
740 3 679 759 785
741 6 516 703 746 771 785 2073
742 7 683 686 700 709 711 727 748
743 6 688 698 705 760 789 795
744 7 383 449 673 678 706 722 767
745 5 498 521 701 764 1810
746 5 703 710 741 771 785
747 4 765 781 787 791
748 6 700 711 729 742 754 776
749 6 720 730 734 735 737 766
750 6 697 724 756 775 781 786
751 6 279 738 761 769 770 793
752 4 685 731 763 859
753 5 707 768 782 784 892
754 6 510 711 748 760 776 795
755 4 691 705 708 795
756 5 671 695 724 750 781
757 4 699 717 765 787
758 7 427 678 721 731 819 859 895
759 12 672 676 679 738 740 769 770 785 788 793 1586 2073
760 7 711 730 737 743 754 789 795
761 5 279 286 692 738 751
762 6 698 708 725 778 783 788
763 7 685 707 721 731 752 779 782
764 9 492 510 518 521 701 723 729 745 776
765 6 717 747 757 775 781 787
766 4 718 734 735 749
767 7 383 447 457 671 673 695 744
768 9 683 727 753 784 801 861 873 892 896
769 4 738 751 759 793
770 8 279 285 288 290 751 759 788 793
771 6 674 710 725 741 746 785
772 3 678 722 779
773 3 774 790 791
774 7 689 717 720 734 773 790 791
775 6 697 717 750 765 781 786
776 5 510 729 748 754 764
777 5 686 700 701 729 1814
778 8 698 705 708 725 732 762 780 783
779 9 671 678 681 707 721 722 731 763 772
780 3 705 732 778
781 9 671 681 720 747 750 756 765 775 791
782 5 685 707 753 763 892
783 5 698 725 762 778 788
784 5 683 704 707 753 768
785 9 674 679 740 741 746 759 771 1586 2073
786 8 697 717 750 775 794 913 931 939
787 6 699 717 747 757 765 791
788 11 288 672 674 688 698 713 725 759 762 770 783
789 6 688 718 735 737 743 760
790 4 717 773 774 791
791 8 717 720 747 773 774 781 787 790
792 6 677 693 702 739 1663 1749
793 4 751 759 769 770
794 4 276 717 786 913
795 8 510 691 705 726 743 754 755 760
796 6 603 630 823 838 850 903
797 6 817 835 860 884 897 902
798 5 802 806 824 854 872
799 7 339 812 827 834 836 845 894
800 5 334 833 868 888 891
801 4 768 803 861 873
802 6 798 806 824 840 857 869
803 5 801 815 846 861 873
804 5 813 851 853 854 880
805 6 807 830 835 840 858 865
806 5 798 802 813 840 854
807 7 805 825 840 843 858 862 877
808 5 599 657 831 876 886
809 10 817 822 833 855 860 868 881 882 887 905
810 7 821 847 876 883 893 901 905
811 4 833 866 878 886
812 6 339 799 832 845 849 863
813 8 397 441 804 806 840 851 854 877
814 6 594 603 646 867 870 903
815 6 803 846 863 873 892 906
816 6 331 372 849 856 1814 1819
817 7 797 809 855 860 884 889 899
818 5 427 446 451 843 895
819 7 758 859 863 895 898 906 907
820 4 848 852 858 884
821 3 810 893 901
822 6 809 842 855 868 875 888
823 6 573 796 828 838 850 904
824 6 644 798 802 857 872 885
825 5 807 843 848 862 895
826 5 837 871 881 893 902
827 7 333 338 799 829 836 841 894
828 6 573 636 823 890 900 904
829 5 827 841 852 879 894
830 5 805 835 865 897 902
831 6 594 599 808 847 870 876
832 4 812 845 863 898
833 8 334 800 809 811 866 868 878 905
834 5 799 845 852 894 898
835 6 797 805 830 858 884 897
836 6 338 339 354 364 799 827
837 8 636 826 885 890 893 900 901 902
838 4 796 823 903 904
839 5 840 865 869 874 902
840 10 802 805 806 807 813 839 865 869 874 877
841 6 333 364 827 829 875 879
842 5 822 852 855 875 879
843 7 381 446 807 818 825 877 895
844 4 852 884 899 908
845 5 799 812 832 834 898
846 5 803 815 849 861 863
847 6 810 831 867 870 876 883
848 7 820 825 852 858 862 895 898
849 10 331 335 339 812 816 846 856 861 863 896
850 7 573 574 630 633 635 796 823
851 3 397 804 813
852 14 820 829 834 842 844 848 855 879 884 889 894 898 899 908
853 5 75 76 84 804 880
854 8 548 556 798 804 806 813 872 880
855 6 809 817 822 842 852 889
856 6 686 727 816 849 896 1814
857 6 802 824 864 869 885 902
858 7 805 807 820 835 848 862 884
859 7 685 731 752 758 819 892 907
860 6 797 809 817 871 882 902
861 6 768 801 803 846 849 896
862 4 807 825 848 858
863 8 812 815 819 832 846 849 898 906
864 2 857 902
865 5 805 830 839 840 902
866 4 334 811 833 886
867 6 814 847 870 883 903 904
868 5 800 809 822 833 888
869 6 802 839 840 857 874 902
870 5 594 814 831 847 867
871 5 826 860 881 882 902
872 5 556 644 798 824 854
873 5 768 801 803 815 892
874 3 839 840 869
875 6 364 822 841 842 879 888
876 7 808 810 831 847 878 886 905
877 6 381 441 807 813 840 843
878 5 811 833 876 886 905
879 5 829 841 842 852 875
880 5 76 548 804 853 854
881 6 809 826 871 882 887 893
882 4 809 860 871 881
883 5 810 847 867 901 904
884 8 797 817 820 835 844 852 858 899
885 6 636 644 824 837 857 902
886 7 334 657 808 811 866 876 878
887 4 809 881 893 905
888 7 360 364 800 822 868 875 891
889 4 817 852 855 899
890 5 828 837 900 901 904
891 6 334 360 365 374 800 888
892 9 685 753 768 782 815 859 873 906 907
893 8 810 821 826 837 881 887 901 905
894 5 799 827 829 834 852
895 8 427 758 818 819 825 843 848 898
896 5 727 768 849 856 861
897 4 797 830 835 902
898 8 819 832 834 845 848 852 863 895
899 6 817 844 852 884 889 908
900 4 636 828 837 890
901 7 810 821 837 883 890 893 904
902 13 797 826 830 837 839 857 860 864 865 869 871 885 897
903 6 603 796 814 838 867 904
904 8 823 828 838 867 883 890 901 903
905 7 809 810 833 876 878 887 893
906 5 815 819 863 892 907
907 4 819 859 892 906
908 3 844 852 899
909 7 677 682 910 923 924 925 936
910 4 909 924 936 941
911 5 915 918 922 935 938
912 6 675 702 914 917 943 1671
913 6 276 277 786 794 921 939
914 4 675 912 924 943
915 6 911 933 935 936 938 939
916 8 928 932 934 1642 1705 1714 1727 1778
917 4 912 943 1664 1671
918 6 911 922 926 930 937 938
919 9 459 926 928 930 937 938 941 1588 1714
920 6 429 456 927 930 940 942
921 7 277 913 925 929 933 936 939
922 6 911 918 930 931 935 942
923 5 682 715 909 925 929
924 9 675 677 702 909 910 914 941 943 944
925 5 909 921 923 929 936
926 4 918 919 937 938
927 3 920 940 942
928 5 916 919 932 941 1714
929 5 277 715 921 923 925
930 8 456 459 918 919 920 922 937 942
931 7 697 786 922 935 939 940 942
932 4 916 928 934 941
933 4 915 921 936 939
934 6 916 932 941 944 1655 1727
935 5 911 915 922 931 939
936 8 909 910 915 921 925 933 938 941
937 4 918 919 926 930
938 7 911 915 918 919 926 936 941
939 7 786 913 915 921 931 933 935
940 8 429 457 697 724 920 927 931 942
941 9 910 919 924 928 932 934 936 938 944
942 6 920 922 927 930 931 940
943 7 912 914 917 924 944 1655 1664
944 5 924 934 941 943 1655
945 6 317 946 947 955 960 1901
946 10 317 631 945 947 948 949 951 958 959 2438
947 5 945 946 948 950 960
948 4 946 947 950 959
949 5 946 954 958 959 962
950 4 947 948 959 960
951 9 547 550 628 631 651 946 956 957 958
952 5 600 953 954 962 963
953 5 600 952 954 958 964
954 5 949 952 953 958 962
955 5 301 317 945 1896 1901
956 7 560 579 651 951 957 961 964
957 4 951 956 958 964
958 7 946 949 951 953 954 957 964
959 6 946 948 949 950 960 962
960 5 945 947 950 959 1901
961 7 579 600 652 654 668 956 964
962 4 949 952 954 959
963 3 600 616 952
964 6 600 953 956 957 958 961
965 1 1007
966 6 47 53 972 980 982 996
967 5 974 987 997 1003 1014
968 7 970 973 976 978 999 1002 1013
969 6 976 987 991 999 1005 2003
970 6 968 973 1007 1011 1013 2013
971 6 983 984 985 996 1000 1014
972 7 53 966 973 980 992 1009 1011
973 8 968 970 972 975 978 980 992 1011
974 8 37 43 46 967 988 997 1003 1012
975 5 973 978 980 990 998
976 6 968 969 991 999 1005 1013
977 5 994 1013 2004 2012 2014
978 7 968 973 975 993 998 1002 1004
979 4 987 1003 2003 2037
980 9 966 972 973 975 981 982 985 990 996
981 4 980 985 990 998
982 2 966 980
983 8 37 47 59 971 996 997 1012 1014
984 4 971 985 1000 1014
985 8 971 980 981 984 996 998 1000 1014
986 3 993 1006 1014
987 7 967 969 979 999 1003 1014 2003
988 6 42 43 974 1003 2026 2037
989 6 995 1010 2027 2030 2032 2039
990 4 975 980 981 998
991 6 969 976 994 1013 2003 2005
992 3 972 973 1011
993 6 978 986 998 1004 1006 1014
994 5 977 991 1013 2005 2012
995 7 989 1001 1010 1015 2030 2033 2036
996 6 47 966 971 980 983 985
997 5 967 974 983 1012 1014
998 7 975 978 981 985 990 993 1014
999 9 968 969 976 987 1002 1004 1005 1006 1014
1000 3 971 984 985
1001 8 50 53 995 1009 1010 1015 1888 2446
1002 4 968 978 999 1004
1003 6 967 974 979 987 988 2037
1004 5 978 993 999 1002 1006
1005 3 969 976 999
1006 5 986 993 999 1004 1014
1007 9 965 970 1009 1011 1015 2013 2018 2033 2036
1008 4 1010 1866 2029 2039
1009 6 53 972 1001 1007 1011 1015
1010 11 989 995 1001 1008 1847 1866 1878 1887 1888 2029 2039
1011 6 970 972 973 992 1007 1009
1012 4 37 974 983 997
1013 9 968 970 976 977 991 994 2007 2013 2014
1014 12 967 971 983 984 985 986 987 993 997 998 999 1006
1015 5 995 1001 1007 1009 2033
1016 22 1027 1059 1073 1079 1081 1133 1223 1265 1316 1328 1353 1386 1413 1420 1424 1428 1442 1455 1526 1544 1551 1567
1017 6 1030 1038 1381 1461 1478 1571
1018 6 1109 1134 1325 1428 1511 1521
1019 3 1104 1237 1493
1020 6 1051 1124 1246 1264 1398 1453
1021 5 1206 1289 1370 1379 1501
1022 4 1181 1216 1377 1565
1023 9 1070 1104 1184 1210 1274 1287 1301 1505 1566
1024 5 1152 1155 1232 1470 1552
1025 9 1121 1141 1172 1231 1313 1323 1376 1457 1492
1026 3 1056 1539 1707
1027 7 1016 1080 1100 1275 1428 1544 1559
1028 6 1077 1086 1122 1152 1155 1366
1029 8 1127 1162 1198 1256 1293 1374 1418 1563
1030 6 1017 1115 1368 1381 1461 1483
1031 7 1043 1053 1222 1254 1307 1354 1519
1032 8 1054 1114 1209 1255 1403 1409 1557 1584
1033 5 1055 1181 1230 1489 1565
1034 7 1123 1154 1229 1295 1501 1562 1578
1035 7 1055 1094 1119 1278 1330 1416 1510
1036 6 1082 1088 1109 1211 1521 1547
1037 2 1267 1397
1038 3 1017 1381 1571
1039 8 418 1063 1200 1224 1404 1508 1571 1573
1040 11 418 423 1266 1271 1333 1349 1359 1361 1389 1445 1571
1041 6 1123 1229 1243 1340 1524 1574
1042 8 1049 1262 1421 1498 1504 1506 1525 1556
1043 9 1031 1062 1132 1157 1307 1354 1500 1519 2295
1044 9 1203 1343 1344 1382 1443 1490 1503 1553 1555
1045 7 1190 1284 1355 1363 1426 1463 1539
1046 2 1062 1135
1047 5 1209 1403 1511 1521 1583
1048 9 1061 1182 1217 1238 1390 1414 1438 1507 1558
1049 5 1042 1098 1262 1504 1556
1050 6 1179 1346 1443 1553 2121 2284
1051 7 1020 1055 1246 1388 1453 1484 1514
1052 5 1105 1282 1340 1371 1380
1053 6 1031 1174 1222 1254 1283 1538
1054 3 1032 1403 1584
1055 22 1033 1035 1051 1102 1108 1119 1122 1124 1145 1150 1181 1193 1249 1335 1352 1388 1416 1484 1489 1514 1528 1565
1056 9 1026 1153 1250 1269 1363 1530 1539 1653 1707
1057 9 1072 1074 1080 1083 1176 1290 1423 1499 1583
1058 5 1090 1411 1447 1497 1575
1059 8 1016 1223 1270 1292 1356 1420 1455 1544
1060 2 1151 1301
1061 4 1048 1182 1487 1558
1062 12 1043 1046 1135 1180 1354 1553 2194 2241 2278 2284 2295 2296
1063 8 409 418 1039 1101 1252 1404 1438 1508
1064 5 1207 1261 1347 1495 1501
1065 9 150 203 1084 1098 1126 1504 2119 2259 2269
1066 8 1125 1146 1327 1460 1505 1596 1696 1740
1067 8 1068 1166 1281 1400 1429 1432 1532 1549
1068 6 1067 1120 1253 1429 1523 1532
1069 6 1194 1235 1280 1441 1464 1485
1070 11 1023 1191 1274 1287 1367 1449 1505 1548 1566 1623 1752
1071 4 1167 1199 1296 1324
1072 8 1057 1203 1311 1369 1499 1541 1580 1583
1073 5 1016 1149 1258 1413 1442
1074 5 1057 1080 1290 1314 1437
1075 6 1131 1149 1218 1258 1357 1520
1076 8 1110 1131 1169 1240 1440 1476 1516 1572
1077 4 1028 1122 1152 1444
1078 8 1116 1124 1208 1246 1249 1264 1394 1524
1079 7 1016 1225 1328 1353 1421 1427 1480
1080 13 1027 1057 1074 1161 1197 1244 1275 1314 1350 1423 1428 1511 1583
1081 4 1016 1316 1428 1567
1082 8 1036 1088 1179 1225 1321 1346 1480 1547
1083 11 1057 1176 1226 1236 1239 1248 1448 1457 1474 1494 1499
1084 7 150 1065 1098 1142 1365 1397 1568
1085 4 1207 1219 1336 1412
1086 5 1028 1094 1111 1278 1366
1087 5 147 150 1188 1286 1365
1088 8 1036 1082 1160 1179 1211 1241 1321 1373
1089 4 1106 1124 1178 1473
1090 5 1058 1199 1411 1497 1509
1091 5 1153 1296 1324 1462 1769
1092 3 1421 1506 1554
1093 6 1194 1204 1227 1231 1313 1464
1094 6 1035 1086 1111 1278 1510 1577
1095 5 1158 1169 1510 1572 1577
1096 8 1113 1138 1224 1335 1478 1552 1571 1573
1097 7 1302 1415 1481 1495 1501 1533 1535
1098 11 1049 1065 1084 1175 1205 1262 1267 1397 1410 1504 1556
1099 4 1120 1407 1415 1535
1100 5 1027 1128 1430 1544 1559
1101 4 409 1063 1438 1558
1102 6 1055 1119 1150 1392 1522 1565
1103 4 1122 1330 1366 1534
1104 12 1019 1023 1184 1210 1215 1228 1237 1247 1266 1332 1333 1493
1105 5 1052 1148 1206 1340 1371
1106 11 1089 1178 1257 1305 1362 1394 1436 1473 1491 1512 1515
1107 4 1125 1143 1320 1375
1108 4 1055 1193 1335 1543
1109 7 1018 1036 1134 1168 1328 1521 1547
1110 4 1076 1131 1357 1516
1111 5 1086 1094 1137 1158 1577
1112 5 1155 1232 1238 1348 1507
1113 8 1096 1129 1189 1282 1335 1467 1478 1540
1114 5 1032 1255 1260 1537 1557
1115 3 1030 1381 1483
1116 4 1078 1280 1394 1524
1117 5 1127 1358 1422 1433 1468
1118 8 1120 1187 1201 1202 1269 1355 1452 1530
1119 22 1035 1055 1102 1150 1169 1212 1240 1263 1270 1304 1356 1383 1392 1399 1450 1456 1469 1476 1488 1510 1522 1565
1120 16 1068 1099 1118 1154 1185 1187 1253 1402 1407 1415 1481 1513 1530 1532 1533 1562
1121 6 1025 1166 1309 1312 1376 1492
1122 9 1028 1055 1077 1103 1145 1330 1366 1416 1444
1123 6 1034 1041 1206 1229 1340 1501
1124 19 1020 1055 1078 1089 1178 1208 1246 1249 1264 1388 1394 1398 1453 1454 1458 1471 1473 1514 1570
1125 9 377 419 454 1066 1107 1143 1327 1375 1596
1126 7 1065 1225 1421 1498 1504 1525 2259
1127 8 1029 1117 1198 1256 1374 1433 1459 1468
1128 7 1100 1197 1300 1338 1341 1430 1559
1129 3 1113 1189 1467
1130 5 1189 1368 1401 1425 1542
1131 8 1075 1076 1110 1149 1159 1357 1440 1442
1132 8 1043 1157 1190 1202 1307 1500 1759 2153
1133 6 1016 1265 1386 1413 1502 1526
1134 5 1018 1109 1168 1328 1428
1135 6 1046 1062 1156 1354 1503 1553
1136 4 1165 1261 1302 1342
1137 6 1111 1158 1520 1564 1572 1581
1138 5 1096 1335 1470 1543 1552
1139 3 1286 1288 1365
1140 5 1146 1151 1173 1320 1466
1141 6 1025 1172 1231 1239 1457 1464
1142 4 1084 1397 1568 1582
1143 6 382 454 1107 1125 1320 1375
1144 7 1186 1434 1673 1686 1688 1730 1769
1145 7 1055 1122 1193 1299 1352 1444 1470
1146 9 1066 1140 1151 1177 1320 1327 1375 1393 1460
1147 3 424 460 1182
1148 11 1105 1206 1259 1289 1293 1326 1371 1374 1379 1418 1529
1149 5 1073 1075 1131 1258 1442
1150 5 1055 1102 1119 1450 1522
1151 16 1060 1140 1146 1173 1177 1184 1215 1228 1277 1301 1320 1361 1445 1466 1505 1550
1152 6 1024 1028 1077 1155 1444 1470
1153 9 1056 1091 1250 1324 1387 1513 1530 1689 1769
1154 5 1034 1120 1402 1501 1562
1155 7 1024 1028 1112 1152 1232 1238 1507
1156 6 1135 1281 1354 1432 1503 1549
1157 3 1043 1132 1307
1158 5 1095 1111 1137 1572 1577
1159 6 1131 1270 1334 1424 1440 1442
1160 5 1088 1179 1241 1321 1490
1161 4 1080 1197 1244 1559
1162 4 1029 1285 1293 1563
1163 3 1477 1554 1567
1164 2 1566 1640
1165 3 1136 1261 1342
1166 6 1067 1121 1309 1376 1400 1532
1167 5 1071 1199 1324 1509 1579
1168 5 1109 1134 1328 1480 1547
1169 6 1076 1095 1119 1476 1510 1572
1170 5 1296 1317 1486 1560 1566
1171 2 1419 1570
1172 4 1025 1141 1457 1492
1173 5 1140 1151 1277 1320 1466
1174 6 1053 1254 1283 1306 1452 1538
1175 3 1098 1267 1397
1176 4 1057 1083 1290 1494
1177 5 1146 1151 1301 1393 1505
1178 5 1089 1106 1124 1257 1458
1179 8 1050 1082 1088 1160 1321 1346 1443 1490
1180 7 1062 1553 2104 2109 2263 2284 2296
1181 10 1022 1033 1055 1216 1230 1242 1360 1484 1489 1565
1182 5 424 1048 1061 1147 1487
1183 2 1220 1565
1184 5 1023 1104 1151 1228 1301
1185 7 1120 1187 1253 1283 1378 1429 1523
1186 4 1144 1434 1688 1796
1187 5 1118 1120 1185 1378 1452
1188 1 1087
1189 8 1113 1129 1130 1368 1401 1461 1467 1478
1190 8 1045 1132 1202 1364 1426 1451 1463 1759
1191 4 1070 1505 1623 1740
1192 12 1267 1385 1386 1405 1410 1413 1417 1477 1518 1546 1551 1554
1193 7 1055 1108 1145 1299 1352 1470 1543
1194 6 1069 1093 1214 1227 1441 1464
1195 7 1233 1251 1259 1272 1374 1459 1483
1196 2 1203 1311
1197 8 1080 1128 1161 1314 1338 1341 1395 1559
1198 4 1029 1127 1433 1563
1199 6 1071 1090 1167 1296 1411 1509
1200 3 418 1039 1571
1201 5 1118 1202 1306 1452 1482
1202 9 1118 1132 1190 1201 1306 1307 1355 1364 1482
1203 15 1044 1072 1196 1309 1311 1343 1345 1369 1391 1400 1431 1457 1492 1503 1549
1204 7 1093 1227 1243 1313 1323 1396 1574
1205 5 1098 1410 1477 1518 1556
1206 7 1021 1105 1123 1148 1289 1340 1501
1207 7 1064 1085 1219 1261 1347 1412 1433
1208 5 1078 1124 1264 1394 1473
1209 6 1032 1047 1403 1409 1557 1583
1210 5 1023 1104 1237 1545 1566
1211 6 1036 1088 1373 1403 1521 1584
1212 3 1119 1456 1469
1213 2 1369 1580
1214 4 1194 1227 1243 1441
1215 7 1104 1151 1228 1266 1389 1445 1550
1216 3 1022 1181 1565
1217 5 1048 1238 1308 1348 1414
1218 5 1075 1357 1516 1520 1564
1219 5 1085 1207 1336 1347 1501
1220 9 1183 1300 1406 1419 1430 1479 1565 1570 1585
1221 8 1241 1255 1260 1329 1339 1373 1490 1537
1222 8 1031 1053 1281 1283 1319 1354 1429 1538
1223 6 1016 1059 1270 1334 1424 1455
1224 6 1039 1096 1308 1508 1552 1573
1225 8 1079 1082 1126 1346 1421 1480 2259 2302
1226 7 1083 1234 1248 1290 1437 1494 1496
1227 5 1093 1194 1204 1214 1243
1228 4 1104 1151 1184 1215
1229 5 1034 1041 1123 1574 1578
1230 3 1033 1181 1565
1231 5 1025 1093 1141 1313 1464
1232 6 1024 1112 1155 1308 1348 1552
1233 4 1195 1251 1259 1372
1234 8 1226 1248 1257 1310 1437 1446 1491 1512
1235 5 1069 1280 1394 1485 1517
1236 5 1083 1239 1448 1474 1569
1237 6 1019 1104 1210 1447 1493 1545
1238 6 1048 1112 1155 1217 1348 1507
1239 6 1083 1141 1236 1457 1464 1569
1240 6 1076 1119 1304 1383 1440 1476
1241 5 1088 1160 1221 1373 1490
1242 3 1181 1360 1484
1243 9 1041 1204 1214 1227 1280 1291 1441 1524 1574
1244 4 1080 1161 1511 1559
1245 4 1362 1454 1536 1570
1246 7 1020 1051 1078 1124 1249 1264 1514
1247 5 1104 1332 1422 1439 1493
1248 9 1083 1226 1234 1448 1465 1474 1494 1512 1569
1249 9 1055 1078 1124 1246 1282 1335 1340 1380 1524
1250 4 1056 1153 1653 1689
1251 6 1195 1233 1368 1372 1425 1483
1252 6 1063 1390 1408 1414 1438 1508
1253 4 1068 1120 1185 1523
1254 5 1031 1053 1174 1306 1307
1255 6 1032 1114 1221 1260 1373 1584
1256 4 1029 1127 1374 1459
1257 8 1106 1178 1234 1305 1362 1446 1458 1491
1258 4 1073 1075 1149 1520
1259 7 1148 1195 1233 1326 1372 1374 1529
1260 4 1114 1221 1255 1537
1261 8 1064 1136 1165 1207 1302 1342 1433 1495
1262 4 1042 1049 1098 1504
1263 4 1119 1331 1356 1565
1264 6 1020 1078 1124 1208 1246 1398
1265 2 1016 1133
1266 5 1040 1104 1215 1333 1389
1267 7 1037 1098 1175 1192 1397 1405 1410
1268 4 1302 1387 1509 1575
1269 5 1056 1118 1355 1363 1530
1270 9 1059 1119 1159 1223 1292 1334 1356 1440 1488
1271 4 418 423 1040 1571
1272 3 1195 1459 1483
1273 3 1382 1490 1527
1274 5 1023 1070 1367 1449 1505
1275 5 1027 1080 1350 1511 1559
1276 5 1286 1288 1397 1568 1582
1277 6 382 396 1151 1173 1320 1361
1278 5 1035 1086 1094 1330 1366
1279 3 1419 1479 1570
1280 8 1069 1116 1235 1243 1291 1394 1441 1524
1281 7 1067 1156 1222 1319 1354 1429 1432
1282 9 1052 1113 1249 1335 1371 1380 1401 1467 1540
1283 8 1053 1174 1185 1222 1378 1429 1452 1538
1284 5 1045 1351 1426 1539 1707
1285 7 1162 1293 1336 1370 1379 1412 1563
1286 7 147 160 1087 1139 1276 1288 1365
1287 3 1023 1070 1566
1288 5 1139 1276 1286 1365 1568
1289 4 1021 1148 1206 1379
1290 7 1057 1074 1176 1226 1437 1494 1496
1291 3 1243 1280 1524
1292 3 1059 1270 1356
1293 6 1029 1148 1162 1285 1379 1418
1294 1 1442
1295 6 1034 1323 1396 1472 1562 1578
1296 9 1071 1091 1170 1199 1317 1324 1411 1462 1486
1297 2 1485 1569
1298 3 1397 1405 1417
1299 3 1145 1193 1470
1300 6 1128 1220 1338 1384 1430 1570
1301 6 1023 1060 1151 1177 1184 1505
1302 10 1097 1136 1261 1268 1342 1387 1495 1513 1533 1575
1303 4 1548 1640 1752 1796
1304 4 1119 1240 1440 1488
1305 9 1106 1257 1322 1338 1341 1362 1384 1446 1570
1306 6 1174 1201 1202 1254 1307 1452
1307 8 1031 1043 1132 1157 1202 1254 1306 1519
1308 8 1217 1224 1232 1348 1408 1414 1508 1552
1309 6 1121 1166 1203 1312 1400 1492
1310 3 1234 1491 1512
1311 6 1072 1196 1203 1457 1492 1499
1312 3 1121 1309 1492
1313 5 1025 1093 1204 1231 1323
1314 5 1074 1080 1197 1395 1437
1315 4 409 424 1487 1558
1316 3 1016 1081 1567
1317 5 1170 1296 1434 1462 1560
1318 5 1332 1333 1358 1475 1483
1319 3 1222 1281 1429
1320 9 382 1107 1140 1143 1146 1151 1173 1277 1375
1321 4 1082 1088 1160 1179
1322 2 1305 1570
1323 8 1025 1204 1295 1313 1376 1396 1472 1574
1324 7 1071 1091 1153 1167 1296 1387 1579
1325 4 1018 1350 1428 1511
1326 4 1148 1259 1374 1418
1327 4 1066 1125 1146 1375
1328 8 1016 1079 1109 1134 1168 1427 1428 1480
1329 8 1221 1339 1345 1369 1382 1391 1537 1580
1330 7 1035 1103 1122 1278 1366 1416 1534
1331 5 1263 1356 1430 1544 1565
1332 6 1104 1247 1318 1333 1358 1422
1333 7 1040 1104 1266 1318 1332 1359 1483
1334 4 1159 1223 1270 1424
1335 9 1055 1096 1108 1113 1138 1249 1282 1380 1543
1336 6 1085 1219 1285 1370 1412 1501
1337 5 1371 1372 1401 1529 1542
1338 6 1128 1197 1300 1305 1341 1384
1339 4 1221 1329 1382 1490
1340 9 1041 1052 1105 1123 1206 1249 1380 1501 1524
1341 7 1128 1197 1305 1338 1384 1395 1446
1342 7 1136 1165 1261 1302 1433 1435 1575
1343 4 1044 1203 1345 1555
1344 5 1044 1382 1490 1527 1555
1345 6 1203 1329 1343 1382 1391 1555
1346 7 1050 1082 1179 1225 2121 2284 2302
1347 4 1064 1207 1219 1501
1348 5 1112 1217 1232 1238 1308
1349 4 396 423 1040 1361
1350 5 1080 1275 1325 1428 1511
1351 5 1284 1426 1451 1707 1759
1352 3 1055 1145 1193
1353 4 1016 1079 1421 1551
1354 7 1031 1043 1062 1135 1156 1222 1281
1355 7 1045 1118 1202 1269 1363 1364 1463
1356 9 1059 1119 1263 1270 1292 1331 1399 1430 1544
1357 5 1075 1110 1131 1218 1516
1358 6 1117 1318 1332 1422 1468 1475
1359 4 1040 1333 1483 1571
1360 4 1181 1242 1484 1565
1361 6 396 1040 1151 1277 1349 1445
1362 7 1106 1245 1257 1305 1454 1458 1570
1363 5 1045 1056 1269 1355 1539
1364 4 1190 1202 1355 1463
1365 7 150 1084 1087 1139 1286 1288 1568
1366 7 1028 1086 1103 1122 1278 1330 1534
1367 4 1070 1274 1449 1505
1368 7 1030 1130 1189 1251 1425 1461 1483
1369 6 1072 1203 1213 1329 1391 1580
1370 5 1021 1285 1336 1379 1501
1371 8 1052 1105 1148 1282 1337 1401 1467 1529
1372 7 1233 1251 1259 1337 1425 1529 1542
1373 6 1088 1211 1221 1241 1255 1584
1374 9 1029 1127 1148 1195 1256 1259 1326 1418 1459
1375 6 1107 1125 1143 1146 1320 1327
1376 6 1025 1121 1166 1323 1472 1532
1377 2 1022 1565
1378 4 1185 1187 1283 1452
1379 6 1021 1148 1285 1289 1293 1370
1380 5 1052 1249 1282 1335 1340
1381 6 1017 1030 1038 1115 1483 1571
1382 9 1044 1273 1329 1339 1344 1345 1490 1527 1555
1383 3 1119 1240 1476
1384 5 1300 1305 1338 1341 1570
1385 2 1192 1386
1386 8 1016 1133 1192 1385 1413 1477 1502 1567
1387 8 1153 1268 1302 1324 1509 1513 1530 1579
1388 5 1051 1055 1124 1514 1528
1389 4 1040 1215 1266 1445
1390 4 1048 1252 1414 1438
1391 5 1203 1329 1345 1369 1580
1392 3 1102 1119 1522
1393 4 1146 1177 1460 1505
1394 10 1078 1106 1116 1124 1208 1235 1280 1473 1515 1517
1395 5 1197 1314 1341 1437 1446
1396 6 1204 1295 1323 1472 1574 1578
1397 11 1037 1084 1098 1142 1175 1267 1276 1298 1405 1568 1582
1398 7 1020 1124 1264 1454 1471 1536 1561
1399 2 1119 1356
1400 5 1067 1166 1203 1309 1549
1401 7 1130 1189 1282 1337 1371 1467 1542
1402 4 1120 1154 1481 1501
1403 7 1032 1047 1054 1209 1211 1521 1584
1404 3 1039 1063 1508
1405 5 1192 1267 1298 1397 1417
1406 4 1220 1419 1565 1570
1407 4 1099 1120 1481 1535
1408 4 1252 1308 1414 1508
1409 3 1032 1209 1557
1410 5 1098 1192 1205 1267 1518
1411 7 1058 1090 1199 1296 1447 1486 1545
1412 6 1085 1207 1285 1336 1433 1563
1413 7 1016 1073 1133 1192 1386 1502 1546
1414 7 1048 1217 1252 1308 1390 1408 1438
1415 5 1097 1099 1120 1533 1535
1416 4 1035 1055 1122 1330
1417 3 1192 1298 1405
1418 5 1029 1148 1293 1326 1374
1419 6 1171 1220 1279 1406 1479 1570
1420 4 1016 1059 1455 1544
1421 10 1042 1079 1092 1126 1225 1353 1498 1506 1551 1554
1422 6 1117 1247 1332 1358 1433 1439
1423 3 1057 1080 1583
1424 5 1016 1159 1223 1334 1442
1425 5 1130 1251 1368 1372 1542
1426 6 1045 1190 1284 1351 1451 1463
1427 3 1079 1328 1480
1428 10 1016 1018 1027 1080 1081 1134 1325 1328 1350 1567
1429 8 1067 1068 1185 1222 1281 1283 1319 1523
1430 8 1100 1128 1220 1300 1331 1356 1544 1565
1431 1 1203
1432 4 1067 1156 1281 1549
1433 13 1117 1127 1198 1207 1261 1342 1412 1422 1435 1439 1493 1563 1576
1434 10 1144 1186 1317 1462 1560 1566 1730 1747 1769 1796
1435 4 1342 1433 1575 1576
1436 3 1106 1512 1515
1437 8 1074 1226 1234 1290 1314 1395 1446 1496
1438 7 1048 1063 1101 1252 1390 1414 1558
1439 4 1247 1422 1433 1493
1440 7 1076 1131 1159 1240 1270 1304 1488
1441 5 1069 1194 1214 1243 1280
1442 7 1016 1073 1131 1149 1159 1294 1424
1443 5 1044 1050 1179 1490 1553
1444 5 1077 1122 1145 1152 1470
1445 6 1040 1151 1215 1361 1389 1550
1446 6 1234 1257 1305 1341 1395 1437
1447 7 1058 1237 1411 1493 1545 1575 1576
1448 5 1083 1236 1248 1465 1474
1449 3 1070 1274 1367
1450 4 1119 1150 1469 1522
1451 4 1190 1351 1426 1759
1452 7 1118 1174 1187 1201 1283 1306 1378
1453 6 1020 1051 1124 1484 1565 1570
1454 6 1124 1245 1362 1398 1458 1536
1455 4 1016 1059 1223 1420
1456 3 1119 1212 1469
1457 10 1025 1083 1141 1172 1203 1239 1311 1464 1492 1499
1458 5 1124 1178 1257 1362 1454
1459 8 1127 1195 1256 1272 1374 1468 1475 1483
1460 4 1066 1146 1393 1505
1461 5 1017 1030 1189 1368 1478
1462 5 1091 1296 1317 1434 1769
1463 5 1045 1190 1355 1364 1426
1464 9 1069 1093 1141 1194 1231 1239 1457 1485 1569
1465 3 1248 1448 1474
1466 3 1140 1151 1173
1467 7 1113 1129 1189 1282 1371 1401 1540
1468 5 1117 1127 1358 1459 1475
1469 5 1119 1212 1450 1456 1522
1470 9 1024 1138 1145 1152 1193 1299 1444 1543 1552
1471 5 1124 1398 1536 1561 1570
1472 6 1295 1323 1376 1396 1532 1562
1473 5 1089 1106 1124 1208 1394
1474 6 1083 1236 1248 1448 1465 1569
1475 5 1318 1358 1459 1468 1483
1476 5 1076 1119 1169 1240 1383
1477 9 1163 1192 1205 1386 1506 1518 1554 1556 1567
1478 7 1017 1096 1113 1189 1461 1571 1573
1479 4 1220 1279 1419 1570
1480 7 1079 1082 1168 1225 1328 1427 1547
1481 6 1097 1120 1402 1407 1501 1535
1482 2 1201 1202
1483 13 1030 1115 1195 1251 1272 1318 1333 1359 1368 1381 1459 1475 1571
1484 8 1051 1055 1181 1242 1360 1453 1489 1565
1485 7 1069 1235 1297 1464 1512 1517 1569
1486 5 1170 1296 1411 1545 1566
1487 5 424 1061 1182 1315 1558
1488 4 1119 1270 1304 1440
1489 4 1033 1055 1181 1484
1490 11 1044 1160 1179 1221 1241 1273 1339 1344 1382 1443 1527
1491 5 1106 1234 1257 1310 1512
1492 8 1025 1121 1172 1203 1309 1311 1312 1457
1493 8 1019 1104 1237 1247 1433 1439 1447 1576
1494 5 1083 1176 1226 1248 1290
1495 5 1064 1097 1261 1302 1501
1496 3 1226 1290 1437
1497 4 1058 1090 1509 1575
1498 4 1042 1126 1421 1525
1499 6 1057 1072 1083 1311 1457 1583
1500 5 1043 1132 1531 2153 2295
1501 15 1021 1034 1064 1097 1123 1154 1206 1219 1336 1340 1347 1370 1402 1481 1495
1502 3 1133 1386 1413
1503 6 1044 1135 1156 1203 1549 1553
1504 7 1042 1049 1065 1098 1126 1262 1525
1505 12 1023 1066 1070 1151 1177 1191 1274 1301 1367 1393 1460 1740
1506 6 1042 1092 1421 1477 1554 1556
1507 4 1048 1112 1155 1238
1508 7 1039 1063 1224 1252 1308 1404 1408
1509 8 1090 1167 1199 1268 1387 1497 1575 1579
1510 6 1035 1094 1095 1119 1169 1577
1511 10 1018 1047 1080 1244 1275 1325 1350 1521 1559 1583
1512 10 1106 1234 1248 1310 1436 1485 1491 1515 1517 1569
1513 6 1120 1153 1302 1387 1530 1533
1514 5 1051 1055 1124 1246 1388
1515 5 1106 1394 1436 1512 1517
1516 6 1076 1110 1218 1357 1564 1572
1517 5 1235 1394 1485 1512 1515
1518 4 1192 1205 1410 1477
1519 3 1031 1043 1307
1520 5 1075 1137 1218 1258 1564
1521 7 1018 1036 1047 1109 1211 1403 1511
1522 6 1102 1119 1150 1392 1450 1469
1523 4 1068 1185 1253 1429
1524 8 1041 1078 1116 1243 1249 1280 1291 1340
1525 4 1042 1126 1498 1504
1526 2 1016 1133
1527 4 1273 1344 1382 1490
1528 2 1055 1388
1529 5 1148 1259 1337 1371 1372
1530 7 1056 1118 1120 1153 1269 1387 1513
1531 4 1500 2153 2214 2295
1532 7 1067 1068 1120 1166 1376 1472 1562
1533 5 1097 1120 1302 1415 1513
1534 3 1103 1330 1366
1535 5 1097 1099 1407 1415 1481
1536 6 1245 1398 1454 1471 1561 1570
1537 6 1114 1221 1260 1329 1557 1580
1538 4 1053 1174 1222 1283
1539 6 1026 1045 1056 1284 1363 1707
1540 3 1113 1282 1467
1541 4 1072 1557 1580 1583
1542 5 1130 1337 1372 1401 1425
1543 5 1108 1138 1193 1335 1470
1544 8 1016 1027 1059 1100 1331 1356 1420 1430
1545 6 1210 1237 1411 1447 1486 1566
1546 2 1192 1413
1547 5 1036 1082 1109 1168 1480
1548 5 1070 1303 1566 1640 1752
1549 6 1067 1156 1203 1400 1432 1503
1550 3 1151 1215 1445
1551 6 1016 1192 1353 1421 1554 1567
1552 7 1024 1096 1138 1224 1232 1308 1470
1553 8 1044 1050 1062 1135 1180 1443 1503 2284
1554 8 1092 1163 1192 1421 1477 1506 1551 1567
1555 5 1044 1343 1344 1345 1382
1556 6 1042 1049 1098 1205 1477 1506
1557 8 1032 1114 1209 1409 1537 1541 1580 1583
1558 7 409 1048 1061 1101 1315 1438 1487
1559 8 1027 1100 1128 1161 1197 1244 1275 1511
1560 5 1170 1317 1434 1566 1747
1561 3 1398 1471 1536
1562 6 1034 1120 1154 1295 1472 1532
1563 6 1029 1162 1198 1285 1412 1433
1564 6 1137 1218 1516 1520 1572 1581
1565 20 1022 1033 1055 1102 1119 1181 1183 1216 1220 1230 1263 1331 1360 1377 1406 1430 1453 1484 1570 1585
1566 14 1023 1070 1164 1170 1210 1287 1434 1486 1545 1548 1560 1640 1747 1796
1567 9 1016 1081 1163 1316 1386 1428 1477 1551 1554
1568 7 1084 1142 1276 1288 1365 1397 1582
1569 8 1236 1239 1248 1297 1464 1474 1485 1512
1570 17 1124 1171 1220 1245 1279 1300 1305 1322 1362 1384 1406 1419 1453 1471 1479 1536 1565
1571 13 418 1017 1038 1039 1040 1096 1200 1271 1359 1381 1478 1483 1573
1572 8 1076 1095 1137 1158 1169 1516 1564 1581
1573 5 1039 1096 1224 1478 1571
1574 7 1041 1204 1229 1243 1323 1396 1578
1575 9 1058 1268 1302 1342 1435 1447 1497 1509 1576
1576 5 1433 1435 1447 1493 1575
1577 5 1094 1095 1111 1158 1510
1578 5 1034 1229 1295 1396 1574
1579 4 1167 1324 1387 1509
1580 8 1072 1213 1329 1369 1391 1537 1541 1557
1581 3 1137 1564 1572
1582 4 1142 1276 1397 1568
1583 10 1047 1057 1072 1080 1209 1423 1499 1511 1541 1557
1584 6 1032 1054 1211 1255 1373 1403
1585 2 1220 1565
1586 11 693 738 759 785 1603 1746 2062 2069 2073 2086 2087
1587 5 1597 1703 1713 1782 1786
1588 7 407 459 919 1656 1705 1714 1778
1589 6 1594 1597 1665 1713 1737 1785
1590 6 405 406 419 1599 1656 1685
1591 11 1601 1646 1698 1708 1738 1766 1774 2048 2055 2090 2092
1592 6 1600 1649 1691 1787 1800 2193
1593 9 1613 1661 1700 1757 1762 1772 1790 1793 1801
1594 7 1589 1659 1713 1737 1785 2131 2150
1595 6 1624 1668 1729 1743 1782 1794
1596 8 419 1066 1125 1599 1637 1685 1696 1789
1597 7 1587 1589 1610 1665 1703 1713 1785
1598 6 1605 1687 1718 1798 2181 2255
1599 6 1590 1596 1637 1656 1685 1778
1600 8 506 537 1592 1611 1618 1670 1787 1800
1601 3 1591 1646 1708
1602 7 1603 1663 1680 1777 2043 2062 2068
1603 8 693 1586 1602 1663 1680 1746 1777 2062
1604 5 1625 1642 1676 1678 1727
1605 4 1598 1667 1687 1798
1606 2 1669 1672
1607 5 1695 1761 1779 1781 2189
1608 4 1724 1735 1749 1768
1609 7 1622 1626 1644 1682 1690 1736 1748
1610 4 1597 1632 1703 1785
1611 4 530 1600 1618 1800
1612 7 1617 1630 1666 1715 1781 2184 2189
1613 7 1593 1648 1661 1669 1693 1704 1772
1614 7 1679 1765 1775 1780 1793 2077 2099
1615 5 1661 1669 1672 1700 1701
1616 6 1625 1684 1694 1702 1711 1745
1617 7 1612 1630 1666 1697 1753 1756 1784
1618 5 530 537 1600 1611 1636
1619 5 1647 1699 1718 1748 2181
1620 5 1693 1728 1740 1772 1788
1621 3 1667 1717 1723
1622 6 1609 1646 1718 1736 1748 2085
1623 6 1070 1191 1740 1750 1752 1789
1624 5 1595 1650 1698 1743 1794
1625 7 1604 1616 1676 1678 1702 1711 1726
1626 5 1609 1644 1690 1741 1756
1627 5 1651 1654 1663 1783 2068
1628 6 1674 1802 2229 2252 2309 2312
1629 5 1639 1722 1724 1734 1735
1630 6 1612 1617 1754 1784 2184 2226
1631 5 1653 1707 1710 1759 1763
1632 7 1610 1641 1703 1717 1773 1774 1785
1633 4 1653 1683 1689 1763
1634 4 1716 1728 1789 1797
1635 5 1647 1699 1755 2112 2169
1636 4 475 530 537 1618
1637 5 1596 1599 1696 1716 1778
1638 8 1658 1662 1712 1713 1791 2122 2149 2178
1639 6 1629 1694 1722 1732 1734 1757
1640 6 1164 1303 1548 1566 1747 1796
1641 4 1632 1698 1703 1774
1642 6 916 1604 1678 1727 1767 1778
1643 6 1755 2112 2133 2165 2170 2223
1644 6 1609 1626 1679 1736 1741 1771
1645 3 1762 1790 1801
1646 7 1591 1601 1622 1708 1718 2048 2085
1647 5 1619 1635 1699 2169 2181
1648 9 1613 1652 1666 1677 1686 1693 1695 1704 1715
1649 3 1592 1691 1800
1650 9 515 1624 1698 1738 1743 1744 1766 1776 1800
1651 4 1627 1654 1663 1751
1652 5 1648 1673 1677 1686 1693
1653 7 1056 1250 1631 1633 1689 1707 1763
1654 7 1627 1651 1751 1783 1792 2050 2051
1655 6 934 943 944 1664 1727 1742
1656 7 405 407 1588 1590 1599 1705 1778
1657 5 1684 1694 1760 1772 1801
1658 5 1638 1660 1662 1712 1764
1659 4 1594 1713 1786 2131
1660 5 1658 1662 1729 1764 1782
1661 5 1593 1613 1615 1669 1700
1662 6 1638 1658 1660 1713 1782 1786
1663 12 693 792 1602 1603 1627 1651 1709 1749 1751 1768 1777 2068
1664 8 917 943 1655 1671 1722 1726 1742 1770
1665 7 1589 1597 1667 1717 1737 1785 1798
1666 6 1612 1617 1648 1704 1715 1753
1667 7 1605 1621 1665 1687 1717 1723 1798
1668 5 1595 1698 1703 1782 1794
1669 6 1606 1613 1615 1661 1672 1704
1670 3 506 537 1600
1671 7 702 912 917 1664 1722 1724 1749
1672 8 1606 1615 1669 1697 1701 1704 1758 1795
1673 6 1144 1652 1686 1688 1693 1719
1674 6 1628 1787 1802 2156 2193 2229
1675 4 1681 1743 1791 1799
1676 4 1604 1625 1726 1727
1677 3 1648 1652 1693
1678 8 1604 1625 1642 1684 1711 1728 1767 1778
1679 10 1614 1644 1720 1736 1741 1771 1780 2074 2077 2099
1680 3 1602 1603 1777
1681 5 1675 1712 1743 1764 1791
1682 5 1609 1690 1699 1748 1784
1683 5 1633 1689 1692 1695 1763
1684 8 1616 1657 1678 1694 1711 1728 1772 1788
1685 4 419 1590 1596 1599
1686 6 1144 1648 1652 1673 1695 1730
1687 8 1598 1605 1667 1708 1717 1718 1721 1723
1688 6 1144 1186 1673 1719 1740 1796
1689 8 1153 1250 1633 1653 1683 1692 1730 1769
1690 5 1609 1626 1682 1756 1784
1691 7 1592 1649 1791 1799 1800 2159 2193
1692 4 1683 1689 1695 1730
1693 9 1613 1620 1648 1652 1673 1677 1719 1740 1772
1694 9 1616 1639 1657 1684 1702 1722 1757 1762 1801
1695 11 1607 1648 1683 1686 1692 1715 1730 1733 1761 1763 1779
1696 6 1066 1596 1637 1716 1740 1789
1697 7 1617 1672 1704 1741 1753 1756 1758
1698 9 1591 1624 1641 1650 1668 1703 1766 1774 1794
1699 8 1619 1635 1647 1682 1748 1755 1784 2165
1700 7 1593 1615 1661 1701 1706 1780 1793
1701 6 1615 1672 1700 1706 1780 1795
1702 5 1616 1625 1694 1722 1726
1703 8 1587 1597 1610 1632 1641 1668 1698 1782
1704 7 1613 1648 1666 1669 1672 1697 1753
1705 5 916 1588 1656 1714 1778
1706 3 1700 1701 1780
1707 8 1026 1056 1284 1351 1539 1631 1653 1759
1708 7 1591 1601 1646 1687 1717 1718 1774
1709 2 1663 1768
1710 5 1631 1759 1763 2153 2243
1711 5 1616 1625 1678 1684 1745
1712 5 1638 1658 1681 1764 1791
1713 10 1587 1589 1594 1597 1638 1659 1662 1786 2131 2178
1714 5 916 919 928 1588 1705
1715 6 1612 1648 1666 1695 1761 1781
1716 6 1634 1637 1696 1728 1778 1789
1717 11 1621 1632 1665 1667 1687 1708 1721 1723 1773 1774 1785
1718 8 1598 1619 1622 1646 1687 1708 1748 2181
1719 4 1673 1688 1693 1740
1720 2 1679 1736
1721 3 1687 1717 1723
1722 8 1629 1639 1664 1671 1694 1702 1724 1726
1723 5 1621 1667 1687 1717 1721
1724 6 1608 1629 1671 1722 1735 1749
1725 3 1760 1772 1801
1726 8 1625 1664 1676 1702 1722 1727 1742 1770
1727 8 916 934 1604 1642 1655 1676 1726 1742
1728 9 1620 1634 1678 1684 1716 1740 1778 1788 1797
1729 5 1595 1660 1743 1764 1782
1730 7 1144 1434 1686 1689 1692 1695 1769
1731 4 1741 1758 1780 1795
1732 5 1639 1734 1735 1751 1757
1733 3 1695 1763 1779
1734 4 1629 1639 1732 1735
1735 7 1608 1629 1724 1732 1734 1751 1768
1736 9 1609 1622 1644 1679 1720 1771 2053 2077 2085
1737 6 1589 1594 1665 1798 2150 2281
1738 7 488 489 515 1591 1650 1766 2090
1739 4 1798 2246 2281 2291
1740 15 1066 1191 1505 1620 1623 1688 1693 1696 1719 1728 1750 1752 1789 1796 1797
1741 9 1626 1644 1679 1697 1731 1756 1758 1771 1780
1742 5 1655 1664 1726 1727 1770
1743 9 1595 1624 1650 1675 1681 1729 1764 1776 1799
1744 4 515 530 1650 1800
1745 2 1616 1711
1746 3 1586 1603 2062
1747 4 1434 1560 1566 1640
1748 6 1609 1619 1622 1682 1699 1718
1749 7 702 792 1608 1663 1671 1724 1768
1750 5 1623 1740 1752 1789 1797
1751 8 1651 1654 1663 1732 1735 1757 1768 1792
1752 7 1070 1303 1548 1623 1740 1750 1796
1753 4 1617 1666 1697 1704
1754 5 1630 1784 2183 2201 2226
1755 5 1635 1643 1699 2112 2165
1756 6 1617 1626 1690 1697 1741 1784
1757 14 1593 1639 1694 1732 1751 1762 1765 1775 1792 1793 2056 2059 2077 2096
1758 5 1672 1697 1731 1741 1795
1759 8 1132 1190 1351 1451 1631 1707 1710 2153
1760 4 1657 1725 1772 1801
1761 4 1607 1695 1715 1781
1762 6 1593 1645 1694 1757 1790 1801
1763 10 1631 1633 1653 1683 1695 1710 1733 1779 2243 2311
1764 6 1658 1660 1681 1712 1729 1743
1765 4 1614 1757 1775 1793
1766 4 1591 1650 1698 1738
1767 2 1642 1678
1768 6 1608 1663 1709 1735 1749 1751
1769 7 1091 1144 1153 1434 1462 1689 1730
1770 3 1664 1726 1742
1771 4 1644 1679 1736 1741
1772 10 1593 1613 1620 1657 1684 1693 1725 1760 1788 1801
1773 3 1632 1717 1774
1774 7 1591 1632 1641 1698 1708 1717 1773
1775 5 1614 1757 1765 2059 2077
1776 4 1650 1743 1799 1800
1777 4 1602 1603 1663 1680
1778 10 916 1588 1599 1637 1642 1656 1678 1705 1716 1728
1779 10 1607 1695 1733 1763 2116 2143 2189 2219 2228 2311
1780 9 1614 1679 1700 1701 1706 1731 1741 1793 1795
1781 5 1607 1612 1715 1761 2189
1782 8 1587 1595 1660 1662 1668 1703 1729 1786
1783 5 1627 1654 2051 2068 2089
1784 9 1617 1630 1682 1690 1699 1754 1756 2165 2201
1785 7 1589 1594 1597 1610 1632 1665 1717
1786 5 1587 1659 1662 1713 1782
1787 6 506 1592 1600 1674 1802 2193
1788 4 1620 1684 1728 1772
1789 8 1596 1623 1634 1696 1716 1740 1750 1797
1790 4 1593 1645 1762 1801
1791 8 1638 1675 1681 1691 1712 1799 2149 2159
1792 7 1654 1751 1757 2050 2051 2066 2096
1793 6 1593 1614 1700 1757 1765 1780
1794 4 1595 1624 1668 1698
1795 5 1672 1701 1731 1758 1780
1796 8 1186 1303 1434 1566 1640 1688 1740 1752
1797 5 1634 1728 1740 1750 1789
1798 9 1598 1605 1665 1667 1737 1739 2246 2255 2281
1799 6 1675 1691 1743 1776 1791 1800
1800 10 530 1592 1600 1611 1649 1650 1691 1744 1776 1799
1801 9 1593 1645 1657 1694 1725 1760 1762 1772 1790
1802 5 506 1628 1674 1787 2252
1803 6 369 1806 1809 1817 1818 1820
1804 6 497 525 526 540 1820 1835
1805 5 331 367 368 1815 1819
1806 7 362 369 1803 1820 1857 1875 1886
1807 6 337 356 1808 1815 1816 1819
1808 5 1807 1810 1811 1816 1819
1809 4 525 1803 1817 1820
1810 8 498 521 701 745 1808 1811 1814 1819
1811 6 498 536 1808 1810 1813 1816
1812 5 337 1813 1816 1817 1818
1813 5 536 1811 1812 1816 1817
1814 7 686 701 777 816 856 1810 1819
1815 6 356 366 368 1805 1807 1819
1816 6 337 1807 1808 1811 1812 1813
1817 8 525 536 544 1803 1809 1812 1813 1818
1818 7 337 358 362 369 1803 1812 1817
1819 9 331 372 816 1805 1807 1808 1810 1814 1815
1820 9 525 1803 1804 1806 1809 1835 1854 1857 1882
1821 2 1827 1831
1822 2 1824 1829
1823 7 1828 1830 1831 2333 2402 2412 2414
1824 3 1822 1826 1829
1825 3 32 34 1828
1826 3 1824 1827 1829
1827 6 1821 1826 1829 1831 2317 2333
1828 5 32 34 1823 1825 1830
1829 6 1822 1824 1826 1827 2317 2388
1830 7 32 1823 1828 2339 2374 2402 2404
1831 4 1821 1823 1827 2333
1832 5 345 1836 1856 1874 1884
1833 4 1845 1846 1858 1862
1834 6 1835 1851 1852 1868 1871 1885
1835 7 526 1804 1820 1834 1871 1882 1885
1836 8 1832 1840 1844 1856 1858 1874 1879 1883
1837 4 1847 1855 1878 1887
1838 5 1855 1869 1876 1878 1889
1839 7 1849 1850 1854 1873 1882 2022 2028
1840 4 1836 1848 1879 1883
1841 2 357 1874
1842 6 1849 1851 1859 1860 1880 2313
1843 6 1849 1851 1860 1868 1882 1885
1844 4 1836 1858 1862 1874
1845 8 1833 1846 1854 1862 1866 1873 1881 2009
1846 6 1833 1845 1858 1866 1872 1883
1847 5 1010 1837 1855 1887 1888
1848 5 1840 1856 1872 1879 1883
1849 7 1839 1842 1843 1850 1860 1880 1882
1850 7 1839 1849 1867 1880 2023 2028 2280
1851 7 1834 1842 1843 1852 1859 1860 1868
1852 5 1834 1851 1853 1859 1871
1853 9 465 474 523 526 528 534 1852 1859 1871
1854 8 1820 1839 1845 1857 1863 1873 1881 1882
1855 7 1837 1838 1847 1869 1878 1888 2462
1856 10 1832 1836 1848 1864 1865 1870 1872 1877 1879 1884
1857 5 1806 1820 1854 1863 1886
1858 6 1833 1836 1844 1846 1862 1883
1859 6 523 1842 1851 1852 1853 2313
1860 4 1842 1843 1849 1851
1861 3 1862 1863 1881
1862 10 361 1833 1844 1845 1858 1861 1863 1874 1875 1881
1863 7 1854 1857 1861 1862 1875 1881 1886
1864 6 1856 1870 1876 1877 1889 2435
1865 4 1856 1870 1884 2435
1866 8 1008 1010 1845 1846 1872 1878 2009 2029
1867 2 1850 2280
1868 4 1834 1843 1851 1885
1869 6 1838 1855 1876 1890 2436 2462
1870 4 1856 1864 1865 2435
1871 5 526 1834 1835 1852 1853
1872 8 1846 1848 1856 1866 1877 1878 1883 1889
1873 6 1839 1845 1854 2009 2016 2022
1874 9 345 355 357 361 1832 1836 1841 1844 1862
1875 6 361 362 1806 1862 1863 1886
1876 9 1838 1864 1869 1889 1890 2426 2435 2444 2467
1877 4 1856 1864 1872 1889
1878 8 1010 1837 1838 1855 1866 1872 1887 1889
1879 4 1836 1840 1848 1856
1880 6 1842 1849 1850 2132 2280 2313
1881 5 1845 1854 1861 1862 1863
1882 7 1820 1835 1839 1843 1849 1854 1885
1883 6 1836 1840 1846 1848 1858 1872
1884 6 343 345 1832 1856 1865 2435
1885 5 1834 1835 1843 1868 1882
1886 4 1806 1857 1863 1875
1887 4 1010 1837 1847 1878
1888 7 1001 1010 1847 1855 2446 2462 2474
1889 6 1838 1864 1872 1876 1877 1878
1890 7 1869 1876 2427 2436 2447 2451 2467
1891 5 1897 1899 1905 1909 1939
1892 3 1893 1903 1908
1893 5 318 320 1892 1903 1904
1894 3 1898 1906 1908
1895 5 272 320 1906 1908 1909
1896 5 301 955 1901 1902 1904
1897 4 1891 1899 1913 1939
1898 4 1894 1906 1907 1910
1899 4 1891 1897 1909 1910
1900 1 1908
1901 4 945 955 960 1896
1902 4 301 318 1896 1904
1903 4 320 1892 1893 1908
1904 4 318 1893 1896 1902
1905 8 230 240 255 265 269 1891 1909 1939
1906 6 1894 1895 1898 1907 1908 1909
1907 4 1898 1906 1909 1910
1908 7 320 1892 1894 1895 1900 1903 1906
1909 9 269 272 1891 1895 1899 1905 1906 1907 1910
1910 4 1898 1899 1907 1909
1911 7 1914 1922 1928 1938 1940 1947 1962
1912 9 1916 1926 1928 1934 1936 1937 1938 1953 1954
1913 4 1897 1939 1949 1971
1914 4 1911 1940 1962 1969
1915 6 235 1916 1961 1972 1976 1977
1916 6 1912 1915 1937 1954 1972 1977
1917 2 1955 1956
1918 6 1927 1948 1952 1967 1978 1982
1919 6 1923 1932 1958 1964 1966 1981
1920 10 246 252 1930 1931 1934 1936 1944 1953 1972 1976
1921 6 264 270 1930 1950 1958 1966
1922 4 1911 1923 1940 1947
1923 7 1919 1922 1932 1940 1947 1964 1981
1924 8 1929 1933 1937 1943 1945 1961 1965 1977
1925 5 1946 1959 1973 1975 1978
1926 7 1912 1937 1938 1960 1962 1970 1980
1927 5 1918 1967 1969 1980 1982
1928 5 1911 1912 1934 1938 1947
1929 4 249 1924 1933 1961
1930 7 252 270 1920 1921 1931 1958 1964
1931 5 1920 1930 1934 1944 1964
1932 7 1919 1923 1940 1942 1957 1963 1966
1933 5 249 1924 1929 1943 1974
1934 7 1912 1920 1928 1931 1947 1953 1964
1935 2 17 1955
1936 5 1912 1920 1953 1954 1972
1937 7 1912 1916 1924 1926 1945 1960 1977
1938 6 1911 1912 1926 1928 1962 1970
1939 8 230 264 1891 1897 1905 1913 1950 1971
1940 7 1911 1914 1922 1923 1932 1967 1969
1941 5 1945 1946 1959 1980 1982
1942 1 1932
1943 5 1924 1933 1965 1968 1974
1944 2 1920 1931
1945 8 1924 1937 1941 1946 1960 1965 1968 1980
1946 6 1925 1941 1945 1959 1968 1975
1947 6 1911 1922 1923 1928 1934 1964
1948 4 1918 1952 1978 1979
1949 4 1913 1951 1966 1971
1950 5 264 1921 1939 1966 1971
1951 3 1949 1966 1971
1952 6 1918 1948 1956 1967 1973 1978
1953 4 1912 1920 1934 1936
1954 4 1912 1916 1936 1972
1955 3 1917 1935 1956
1956 4 1917 1952 1955 1967
1957 3 1932 1963 1966
1958 5 1919 1921 1930 1964 1966
1959 5 1925 1941 1946 1978 1982
1960 4 1926 1937 1945 1980
1961 6 235 249 1915 1924 1929 1977
1962 7 1911 1914 1926 1938 1969 1970 1980
1963 2 1932 1957
1964 8 1919 1923 1930 1931 1934 1947 1958 1981
1965 4 1924 1943 1945 1968
1966 9 1919 1921 1932 1949 1950 1951 1957 1958 1971
1967 6 1918 1927 1940 1952 1956 1969
1968 6 1943 1945 1946 1965 1974 1975
1969 6 1914 1927 1940 1962 1967 1980
1970 3 1926 1938 1962
1971 6 1913 1939 1949 1950 1951 1966
1972 6 1915 1916 1920 1936 1954 1976
1973 3 1925 1952 1978
1974 4 1933 1943 1968 1975
1975 4 1925 1946 1968 1974
1976 5 235 246 1915 1920 1972
1977 5 1915 1916 1924 1937 1961
1978 8 1918 1925 1948 1952 1959 1973 1979 1982
1979 2 1948 1978
1980 8 1926 1927 1941 1945 1960 1962 1969 1982
1981 3 1919 1923 1964
1982 6 1918 1927 1941 1959 1978 1980
1983 6 99 1989 1991 1992 1996 1998
1984 4 24 29 1993 1999
1985 7 132 134 138 176 1986 1991 1995
1986 7 105 158 161 176 1985 1988 1995
1987 4 1989 1990 1992 1996
1988 9 117 120 161 185 1986 1990 1991 1995 1997
1989 6 99 1983 1987 1992 1994 2240
1990 7 24 1987 1988 1991 1996 1997 1998
1991 8 99 134 1983 1985 1988 1990 1995 1998
1992 4 1983 1987 1989 1996
1993 8 24 25 112 117 185 1984 1997 1999
1994 8 99 119 132 134 203 1989 2240 2269
1995 4 1985 1986 1988 1991
1996 5 1983 1987 1990 1992 1998
1997 6 24 25 185 1988 1990 1993
1998 4 1983 1990 1991 1996
1999 3 117 1984 1993
2000 5 2010 2025 2038 2041 2280
2001 4 2027 2031 2032 2034
2002 6 2013 2018 2019 2021 2040 2042
2003 6 969 979 987 991 2005 2037
2004 3 977 2012 2014
2005 4 991 994 2003 2012
2006 2 2015 2020
2007 5 1013 2013 2014 2015 2019
2008 5 2009 2016 2029 2032 2039
2009 6 1845 1866 1873 2008 2016 2029
2010 4 2000 2038 2280 2287
2011 4 2019 2034 2040 2041
2012 4 977 994 2004 2005
2013 8 970 1007 1013 2002 2007 2018 2019 2021
2014 5 977 1013 2004 2007 2015
2015 5 2006 2007 2014 2019 2020
2016 8 1873 2008 2009 2022 2023 2024 2028 2032
2017 5 2018 2027 2030 2034 2042
2018 8 1007 2002 2013 2017 2021 2030 2036 2042
2019 7 2002 2007 2011 2013 2015 2020 2040
2020 3 2006 2015 2019
2021 4 2002 2013 2018 2042
2022 4 1839 1873 2016 2028
2023 7 1850 2016 2024 2025 2028 2035 2280
2024 5 2016 2023 2031 2032 2035
2025 7 2000 2023 2031 2034 2035 2041 2280
2026 2 988 2037
2027 6 989 2001 2017 2030 2032 2034
2028 5 1839 1850 2016 2022 2023
2029 6 1008 1010 1866 2008 2009 2039
2030 6 989 995 2017 2018 2027 2036
2031 6 2001 2024 2025 2032 2034 2035
2032 8 989 2001 2008 2016 2024 2027 2031 2039
2033 4 995 1007 1015 2036
2034 9 2001 2011 2017 2025 2027 2031 2040 2041 2042
2035 4 2023 2024 2025 2031
2036 5 995 1007 2018 2030 2033
2037 5 979 988 1003 2003 2026
2038 3 2000 2010 2287
2039 6 989 1008 1010 2008 2029 2032
2040 5 2002 2011 2019 2034 2042
2041 4 2000 2011 2025 2034
2042 6 2002 2017 2018 2021 2034 2040
2043 3 1602 2062 2068
2044 4 488 2058 2069 2090
2045 4 2055 2088 2090 2092
2046 12 2054 2060 2061 2065 2072 2075 2078 2084 2089 2098 2100 2102
2047 5 2051 2054 2057 2066 2071
2048 6 1591 1646 2053 2077 2085 2092
2049 3 2051 2052 2089
2050 5 1654 1792 2051 2057 2066
2051 10 1654 1783 1792 2047 2049 2050 2052 2054 2057 2089
2052 5 2049 2051 2054 2065 2089
2053 4 1736 2048 2077 2085
2054 8 2046 2047 2051 2052 2059 2061 2065 2071
2055 4 1591 2045 2090 2092
2056 6 1757 2059 2066 2070 2071 2096
2057 4 2047 2050 2051 2066
2058 9 2044 2060 2062 2069 2082 2087 2090 2097 2098
2059 9 1757 1775 2054 2056 2061 2071 2077 2094 2100
2060 10 2046 2058 2072 2076 2078 2079 2082 2097 2098 2102
2061 4 2046 2054 2059 2100
2062 10 1586 1602 1603 1746 2043 2058 2064 2068 2087 2098
2063 3 2068 2075 2089
2064 4 2062 2068 2075 2098
2065 4 2046 2052 2054 2089
2066 8 1792 2047 2050 2056 2057 2070 2071 2096
2067 7 2077 2079 2083 2091 2093 2095 2101
2068 10 1602 1627 1663 1783 2043 2062 2063 2064 2075 2089
2069 7 488 1586 2044 2058 2073 2086 2087
2070 3 2056 2066 2071
2071 6 2047 2054 2056 2059 2066 2070
2072 7 2046 2060 2076 2078 2079 2080 2093
2073 8 488 516 741 759 785 1586 2069 2086
2074 3 1679 2077 2099
2075 6 2046 2063 2064 2068 2089 2098
2076 4 2060 2072 2078 2079
2077 16 1614 1679 1736 1757 1775 2048 2053 2059 2067 2074 2091 2092 2094 2095 2099 2101
2078 6 2046 2060 2072 2076 2080 2084
2079 8 2060 2067 2072 2076 2082 2088 2093 2101
2080 6 2072 2078 2083 2084 2093 2095
2081 3 2082 2088 2090
2082 7 2058 2060 2079 2081 2088 2090 2097
2083 4 2067 2080 2093 2095
2084 6 2046 2078 2080 2094 2095 2100
2085 5 1622 1646 1736 2048 2053
2086 4 1586 2069 2073 2087
2087 5 1586 2058 2062 2069 2086
2088 7 2045 2079 2081 2082 2090 2092 2101
2089 9 1783 2046 2049 2051 2052 2063 2065 2068 2075
2090 11 488 489 1591 1738 2044 2045 2055 2058 2081 2082 2088
2091 3 2067 2077 2101
2092 7 1591 2045 2048 2055 2077 2088 2101
2093 5 2067 2072 2079 2080 2083
2094 5 2059 2077 2084 2095 2100
2095 6 2067 2077 2080 2083 2084 2094
2096 4 1757 1792 2056 2066
2097 3 2058 2060 2082
2098 7 2046 2058 2060 2062 2064 2075 2102
2099 4 1614 1679 2074 2077
2100 5 2046 2059 2061 2084 2094
2101 6 2067 2077 2079 2088 2091 2092
2102 3 2046 2060 2098
2103 2 2107 2170
2104 7 1180 2210 2230 2242 2248 2263 2284
2105 4 2124 2135 2254 2289
2106 6 2129 2160 2186 2218 2290 2298
2107 7 2103 2133 2144 2170 2221 2288 2297
2108 4 2163 2229 2303 2312
2109 4 1180 2194 2263 2296
2110 4 2267 2271 2307 2314
2111 3 2146 2212 2288
2112 8 1635 1643 1755 2169 2170 2176 2179 2260
2113 5 2129 2185 2216 2220 2274
2114 5 2130 2181 2207 2286 2308
2115 3 2224 2262 2282
2116 4 1779 2143 2182 2228
2117 3 2200 2202 2257
2118 3 2157 2202 2251
2119 5 1065 2147 2208 2259 2269
2120 4 2129 2216 2291 2310
2121 3 1050 1346 2284
2122 5 1638 2149 2152 2178 2193
2123 5 2138 2155 2211 2248 2300
2124 4 2105 2135 2173 2289
2125 4 2137 2217 2250 2277
2126 5 2168 2198 2245 2272 2298
2127 3 2156 2229 2281
2128 4 2145 2199 2294 2301
2129 12 2106 2113 2120 2171 2216 2218 2220 2234 2266 2275 2290 2291
2130 4 2114 2207 2286 2308
2131 5 1594 1659 1713 2150 2178
2132 3 1880 2280 2313
2133 9 1643 2107 2144 2170 2175 2221 2223 2238 2249
2134 2 2281 2310
2135 4 2105 2124 2173 2254
2136 4 2209 2244 2253 2295
2137 5 2125 2164 2217 2277 2289
2138 6 2123 2140 2155 2199 2248 2273
2139 9 462 464 476 482 531 538 2235 2239 2292
2140 7 2138 2145 2154 2155 2199 2203 2276
2141 6 2195 2268 2279 2303 2305 2306
2142 7 2177 2188 2204 2221 2224 2238 2282
2143 8 1779 2116 2164 2173 2182 2189 2217 2289
2144 3 2107 2133 2221
2145 6 2128 2140 2199 2203 2257 2294
2146 5 2111 2151 2185 2186 2288
2147 5 2119 2208 2257 2259 2294
2148 6 2172 2196 2215 2222 2254 2270
2149 5 1638 1791 2122 2159 2193
2150 7 1594 1737 2131 2156 2178 2193 2281
2151 7 2146 2158 2186 2205 2213 2256 2288
2152 3 2122 2178 2193
2153 7 1132 1500 1531 1710 1759 2214 2243
2154 4 2140 2155 2276 2285
2155 5 2123 2138 2140 2154 2276
2156 6 1674 2127 2150 2193 2229 2281
2157 6 2118 2190 2202 2240 2251 2285
2158 9 2151 2170 2176 2181 2198 2205 2245 2256 2260
2159 4 1691 1791 2149 2193
2160 4 2106 2186 2272 2298
2161 4 2271 2279 2305 2306
2162 4 2303 2305 2312 2314
2163 3 2108 2229 2281
2164 4 2137 2143 2217 2289
2165 7 1643 1699 1755 1784 2187 2201 2223
2166 3 2209 2227 2299
2167 5 493 2231 2239 2252 2267
2168 4 2126 2205 2245 2272
2169 7 1635 1647 2112 2176 2179 2181 2260
2170 11 1643 2103 2107 2112 2133 2158 2176 2179 2213 2256 2288
2171 6 2129 2207 2218 2246 2255 2291
2172 7 2148 2183 2201 2223 2254 2270 2277
2173 9 2124 2135 2143 2182 2215 2232 2243 2254 2289
2174 4 2185 2186 2197 2266
2175 5 2133 2180 2238 2249 2282
2176 6 2112 2158 2169 2170 2179 2260
2177 6 2142 2204 2212 2221 2288 2299
2178 7 1638 1713 2122 2131 2150 2152 2193
2179 4 2112 2169 2170 2176
2180 6 2175 2196 2233 2249 2262 2282
2181 12 1598 1619 1647 1718 2114 2158 2169 2198 2207 2255 2260 2286
2182 5 2116 2143 2173 2228 2232
2183 7 1754 2172 2201 2217 2226 2250 2277
2184 4 1612 1630 2189 2226
2185 6 2113 2146 2174 2186 2266 2274
2186 10 2106 2146 2151 2160 2174 2185 2197 2205 2272 2290
2187 2 2165 2223
2188 3 2142 2238 2282
2189 8 1607 1612 1779 1781 2143 2184 2217 2226
2190 5 2157 2208 2240 2251 2269
2191 3 2243 2293 2311
2192 4 2209 2210 2230 2253
2193 11 1592 1674 1691 1787 2122 2149 2150 2152 2156 2159 2178
2194 9 1062 2109 2241 2242 2253 2263 2278 2295 2296
2195 5 2141 2268 2303 2305 2306
2196 9 2148 2180 2214 2215 2222 2225 2233 2249 2261
2197 5 2174 2186 2266 2275 2290
2198 6 2126 2158 2181 2245 2286 2298
2199 7 2128 2138 2140 2145 2273 2301 2302
2200 4 2117 2202 2203 2257
2201 6 1754 1784 2165 2172 2183 2223
2202 9 2117 2118 2157 2200 2203 2208 2251 2257 2285
2203 7 2140 2145 2200 2202 2257 2276 2285
2204 6 2142 2177 2224 2227 2258 2299
2205 6 2151 2158 2168 2186 2245 2272
2206 4 2209 2211 2230 2236
2207 8 2114 2130 2171 2181 2218 2255 2298 2308
2208 7 2119 2147 2190 2202 2251 2257 2269
2209 8 2136 2166 2192 2206 2227 2230 2244 2253
2210 5 2104 2192 2230 2242 2253
2211 4 2123 2206 2236 2300
2212 4 2111 2177 2288 2299
2213 4 2151 2170 2256 2288
2214 8 1531 2153 2196 2225 2243 2261 2262 2295
2215 6 2148 2173 2196 2243 2254 2261
2216 4 2113 2120 2129 2310
2217 8 2125 2137 2143 2164 2183 2189 2226 2250
2218 5 2106 2129 2171 2207 2298
2219 4 1779 2228 2293 2311
2220 4 2113 2129 2234 2274
2221 8 2107 2133 2142 2144 2177 2238 2288 2297
2222 5 2148 2196 2237 2249 2270
2223 9 1643 2133 2165 2172 2187 2201 2237 2249 2270
2224 9 2115 2142 2204 2227 2244 2258 2262 2282 2295
2225 5 2196 2214 2233 2261 2262
2226 6 1630 1754 2183 2184 2189 2217
2227 7 2166 2204 2209 2224 2244 2258 2299
2228 6 1779 2116 2182 2219 2232 2293
2229 9 1628 1674 2108 2127 2156 2163 2281 2309 2312
2230 8 2104 2192 2206 2209 2210 2236 2248 2300
2231 6 487 2167 2235 2239 2252 2292
2232 5 2173 2182 2228 2243 2293
2233 4 2180 2196 2225 2262
2234 4 2129 2220 2266 2274
2235 5 462 487 2139 2231 2292
2236 4 2206 2211 2230 2300
2237 4 2222 2223 2249 2270
2238 6 2133 2142 2175 2188 2221 2282
2239 7 464 493 2139 2167 2231 2247 2292
2240 5 1989 1994 2157 2190 2269
2241 3 1062 2194 2295
2242 5 2104 2194 2210 2253 2263
2243 11 1710 1763 2153 2173 2191 2214 2215 2232 2261 2293 2311
2244 5 2136 2209 2224 2227 2295
2245 5 2126 2158 2168 2198 2205
2246 5 1739 1798 2171 2255 2291
2247 5 464 466 490 493 2239
2248 7 2104 2123 2138 2230 2273 2284 2300
2249 7 2133 2175 2180 2196 2222 2223 2237
2250 4 2125 2183 2217 2277
2251 5 2118 2157 2190 2202 2208
2252 8 487 506 1628 1802 2167 2231 2267 2312
2253 7 2136 2192 2194 2209 2210 2242 2295
2254 8 2105 2135 2148 2172 2173 2215 2277 2289
2255 6 1598 1798 2171 2181 2207 2246
2256 4 2151 2158 2170 2213
2257 8 2117 2145 2147 2200 2202 2203 2208 2294
2258 3 2204 2224 2227
2259 8 1065 1126 1225 2119 2147 2294 2301 2302
2260 5 2112 2158 2169 2176 2181
2261 5 2196 2214 2215 2225 2243
2262 8 2115 2180 2214 2224 2225 2233 2282 2295
2263 5 1180 2104 2109 2194 2242
2264 5 500 507 2265 2283 2307
2265 4 507 523 2264 2283
2266 7 2129 2174 2185 2197 2234 2274 2275
2267 8 493 500 2110 2167 2252 2307 2312 2314
2268 4 2141 2195 2303 2306
2269 8 150 203 1065 1994 2119 2190 2208 2240
2270 5 2148 2172 2222 2223 2237
2271 6 2110 2161 2279 2305 2307 2314
2272 6 2126 2160 2168 2186 2205 2298
2273 5 2138 2199 2248 2284 2302
2274 5 2113 2185 2220 2234 2266
2275 4 2129 2197 2266 2290
2276 5 2140 2154 2155 2203 2285
2277 7 2125 2137 2172 2183 2250 2254 2289
2278 3 1062 2194 2296
2279 9 2141 2161 2271 2280 2303 2304 2306 2307 2313
2280 12 1850 1867 1880 2000 2010 2023 2025 2132 2279 2287 2304 2313
2281 11 1737 1739 1798 2127 2134 2150 2156 2163 2229 2291 2310
2282 8 2115 2142 2175 2180 2188 2224 2238 2262
2283 6 507 523 2264 2265 2307 2313
2284 10 1050 1062 1180 1346 1553 2104 2121 2248 2273 2302
2285 5 2154 2157 2202 2203 2276
2286 6 2114 2130 2181 2198 2298 2308
2287 4 2010 2038 2280 2304
2288 10 2107 2111 2146 2151 2170 2177 2212 2213 2221 2297
2289 8 2105 2124 2137 2143 2164 2173 2254 2277
2290 5 2106 2129 2186 2197 2275
2291 7 1739 2120 2129 2171 2246 2281 2310
2292 4 2139 2231 2235 2239
2293 6 2191 2219 2228 2232 2243 2311
2294 6 2128 2145 2147 2257 2259 2301
2295 12 1043 1062 1500 1531 2136 2194 2214 2224 2241 2244 2253 2262
2296 5 1062 1180 2109 2194 2278
2297 3 2107 2221 2288
2298 9 2106 2126 2160 2198 2207 2218 2272 2286 2308
2299 5 2166 2177 2204 2212 2227
2300 5 2123 2211 2230 2236 2248
2301 5 2128 2199 2259 2294 2302
2302 7 1225 1346 2199 2259 2273 2284 2301
2303 9 2108 2141 2162 2195 2268 2279 2304 2305 2312
2304 4 2279 2280 2287 2303
2305 8 2141 2161 2162 2195 2271 2303 2306 2314
2306 6 2141 2161 2195 2268 2279 2305
2307 8 500 2110 2264 2267 2271 2279 2283 2313
2308 5 2114 2130 2207 2286 2298
2309 3 1628 2229 2312
2310 5 2120 2134 2216 2281 2291
2311 6 1763 1779 2191 2219 2243 2293
2312 9 1628 2108 2162 2229 2252 2267 2303 2309 2314
2313 9 523 1842 1859 1880 2132 2279 2280 2283 2307
2314 6 2110 2162 2267 2271 2305 2312
2315 7 2319 2326 2329 2338 2359 2376 2407
2316 6 2344 2350 2360 2371 2376 2390
2317 5 1827 1829 2333 2384 2388
2318 6 2347 2348 2349 2369 2395 2410
2319 4 2315 2338 2365 2376
2320 5 2348 2354 2360 2382 2400
2321 4 2337 2350 2351 2375
2322 7 2334 2343 2366 2370 2383 2385 2411
2323 5 2348 2360 2368 2398 2409
2324 6 2333 2362 2402 2412 2414 2416
2325 5 2347 2348 2368 2373 2409
2326 5 2315 2329 2336 2359 2383
2327 4 2369 2394 2410 2419
2328 7 26 32 33 2363 2372 2378 2387
2329 5 2315 2326 2343 2383 2407
2330 3 2331 2345 2365
2331 4 2330 2345 2365 2376
2332 5 2341 2355 2373 2392 2417
2333 10 1823 1827 1831 2317 2324 2342 2362 2384 2389 2412
2334 5 2322 2335 2375 2383 2385
2335 7 2334 2337 2341 2355 2367 2375 2385
2336 4 2326 2359 2383 2390
2337 6 2321 2335 2341 2351 2357 2375
2338 5 2315 2319 2380 2407 2408
2339 6 1830 2352 2358 2374 2385 2402
2340 6 2347 2349 2372 2381 2387 2393
2341 9 2332 2335 2337 2351 2353 2355 2357 2373 2398
2342 9 2333 2364 2366 2377 2384 2388 2389 2411 2420
2343 6 2322 2329 2366 2383 2407 2418
2344 5 2316 2350 2351 2360 2398
2345 4 2330 2331 2376 2413
2346 5 2363 2378 2391 2392 2415
2347 7 2318 2325 2340 2348 2349 2373 2381
2348 11 2318 2320 2323 2325 2347 2354 2360 2395 2397 2405 2409
2349 7 2318 2340 2347 2369 2387 2393 2394
2350 7 2316 2321 2344 2351 2375 2383 2390
2351 7 2321 2337 2341 2344 2350 2357 2398
2352 5 2339 2358 2367 2374 2406
2353 4 2341 2368 2373 2398
2354 4 2320 2348 2382 2397
2355 6 2332 2335 2341 2367 2399 2417
2356 3 2361 2379 2380
2357 3 2337 2341 2351
2358 4 2339 2352 2367 2385
2359 5 2315 2326 2336 2376 2390
2360 8 2316 2320 2323 2344 2348 2371 2398 2400
2361 3 2356 2379 2388
2362 5 2324 2333 2389 2396 2416
2363 6 2328 2346 2372 2378 2381 2415
2364 4 2342 2377 2379 2388
2365 4 2319 2330 2331 2376
2366 7 2322 2342 2343 2370 2377 2407 2411
2367 8 2335 2352 2355 2358 2385 2399 2404 2406
2368 6 2323 2325 2353 2373 2398 2409
2369 5 2318 2327 2349 2394 2410
2370 3 2322 2366 2411
2371 4 2316 2360 2376 2400
2372 5 2328 2340 2363 2381 2387
2373 9 2325 2332 2341 2347 2353 2368 2381 2392 2415
2374 5 1830 2339 2352 2404 2406
2375 6 2321 2334 2335 2337 2350 2383
2376 11 2315 2316 2319 2331 2345 2359 2365 2371 2390 2400 2413
2377 6 2342 2364 2366 2379 2407 2408
2378 7 32 2328 2346 2363 2391 2401 2404
2379 7 2356 2361 2364 2377 2380 2388 2408
2380 4 2338 2356 2379 2408
2381 6 2340 2347 2363 2372 2373 2415
2382 5 2320 2354 2397 2400 2413
2383 9 2322 2326 2329 2334 2336 2343 2350 2375 2390
2384 5 2317 2333 2342 2388 2420
2385 10 2322 2334 2335 2339 2358 2367 2386 2402 2411 2416
2386 5 2385 2389 2396 2411 2416
2387 9 33 2328 2340 2349 2372 2393 2394 2403 2419
2388 8 1829 2317 2342 2361 2364 2379 2384 2420
2389 6 2333 2342 2362 2386 2396 2411
2390 6 2316 2336 2350 2359 2376 2383
2391 7 2346 2378 2392 2399 2401 2404 2417
2392 6 2332 2346 2373 2391 2415 2417
2393 3 2340 2349 2387
2394 5 2327 2349 2369 2387 2419
2395 4 2318 2348 2405 2410
2396 4 2362 2386 2389 2416
2397 5 2348 2354 2382 2405 2413
2398 7 2323 2341 2344 2351 2353 2360 2368
2399 5 2355 2367 2391 2404 2417
2400 6 2320 2360 2371 2376 2382 2413
2401 3 2378 2391 2404
2402 7 1823 1830 2324 2339 2385 2414 2416
2403 2 33 2387
2404 9 32 1830 2367 2374 2378 2391 2399 2401 2406
2405 5 2348 2395 2397 2410 2413
2406 4 2352 2367 2374 2404
2407 8 2315 2329 2338 2343 2366 2377 2408 2418
2408 5 2338 2377 2379 2380 2407
2409 4 2323 2325 2348 2368
2410 6 2318 2327 2369 2395 2405 2419
2411 7 2322 2342 2366 2370 2385 2386 2389
2412 4 1823 2324 2333 2414
2413 6 2345 2376 2382 2397 2400 2405
2414 4 1823 2324 2402 2412
2415 5 2346 2363 2373 2381 2392
2416 6 2324 2362 2385 2386 2396 2402
2417 5 2332 2355 2391 2392 2399
2418 2 2343 2407
2419 5 33 2327 2387 2394 2410
2420 3 2342 2384 2388
2421 4 45 50 74 2462
2422 7 606 2424 2432 2434 2439 2456 2459
2423 4 582 643 2434 2439
2424 6 2422 2434 2459 2465 2468 2475
2425 8 2426 2441 2447 2451 2452 2467 2473 2476
2426 7 1876 2425 2435 2441 2444 2464 2467
2427 7 1890 2431 2433 2436 2437 2451 2454
2428 3 2431 2445 2469
2429 6 567 627 648 2432 2461 2468
2430 7 2431 2433 2438 2440 2443 2455 2470
2431 10 2427 2428 2430 2433 2436 2438 2445 2449 2469 2477
2432 8 567 606 632 2422 2429 2458 2459 2468
2433 6 2427 2430 2431 2449 2454 2455
2434 6 643 2422 2423 2424 2439 2465
2435 11 343 624 1864 1865 1870 1876 1884 2426 2444 2463 2464
2436 8 1869 1890 2427 2431 2448 2462 2469 2477
2437 4 2427 2451 2454 2455
2438 10 317 631 649 946 2430 2431 2443 2445 2471 2472
2439 8 582 2422 2423 2434 2442 2453 2456 2460
2440 6 650 664 2430 2443 2470 2471
2441 7 4 10 11 2425 2426 2464 2473
2442 5 7 2439 2456 2460 2470
2443 4 2430 2438 2440 2471
2444 3 1876 2426 2435
2445 11 299 308 314 330 2428 2431 2438 2450 2466 2469 2472
2446 4 50 1001 1888 2474
2447 5 1890 2425 2451 2452 2467
2448 7 292 297 304 2436 2457 2462 2469
2449 2 2431 2433
2450 3 314 2445 2472
2451 8 1890 2425 2427 2437 2447 2452 2455 2476
2452 3 2425 2447 2451
2453 4 582 620 2439 2460
2454 4 2427 2433 2437 2455
2455 7 2430 2433 2437 2451 2454 2470 2476
2456 7 7 564 606 2422 2439 2442 2460
2457 4 297 2448 2466 2469
2458 3 606 632 2432
2459 4 2422 2424 2432 2468
2460 6 620 2439 2442 2453 2456 2470
2461 6 614 648 2429 2468 2475 2478
2462 10 50 74 304 1855 1869 1888 2421 2436 2448 2474
2463 4 9 624 2435 2464
2464 6 9 10 2426 2435 2441 2463
2465 6 550 628 643 2424 2434 2475
2466 5 297 330 2445 2457 2469
2467 5 1876 1890 2425 2426 2447
2468 6 2424 2429 2432 2459 2461 2475
2469 8 2428 2431 2436 2445 2448 2457 2466 2477
2470 10 2 7 620 664 2430 2440 2442 2455 2460 2476
2471 8 582 590 620 631 650 2438 2440 2443
2472 5 314 317 2438 2445 2450
2473 5 4 11 2425 2441 2476
2474 4 50 1888 2446 2462
2475 6 628 2424 2461 2465 2468 2478
2476 7 2 11 2425 2451 2455 2470 2473
2477 3 2431 2436 2469
2478 4 614 628 2461 2475
